72
title
C      8.301831745223  12.701319775421  19.755624349022
C      7.269533334488  12.687472170804  20.753216547340
C      9.536836968233  12.002293203784  19.971994460720
C      8.105346690346  13.362834571184  18.518347204138
C      7.474701451668  12.009110947403  21.975803520517
H      6.449234927027  13.153364791024  20.595713772647
C      9.715021682489  11.313456056656  21.214604667823
C     10.557397348008  12.002755519674  18.994553506347
C      9.114118411817  13.371794932054  17.523196985589
H      7.290645510918  13.864703005681  18.373397384253
C      6.441026069517  11.979117955409  22.955207666165
C      8.700911880179  11.316208737219  22.210794667571
H     10.537153882145  10.839961123496  21.419700217409
H     11.376256431043  11.512556063417  19.169423253135
C     10.344965727819  12.666090439392  17.749409225266
C      8.928436402239  14.064359180751  16.291545876682
C      6.641070898297  11.296873314507  24.163153727292
H      5.589182804869  12.437767377334  22.765365084315
C      8.946435479165  10.689365747785  23.468584257351
C     11.363539212314  12.664275193721  16.736119975195
C      9.923357231597  14.046247073469  15.290616592014
H      8.097012498887  14.535564247763  16.116547889611
C      7.908365280757  10.642017187193  24.421165379897
H      5.962282448181  11.281868093981  24.831598362059
H      9.854098311270  10.308165004167  23.652130724586
H     12.192183149333  12.180597552376  16.888640047835
C     11.155453802927  13.337329781313  15.510817473301
C      9.710255995766  14.750860786640  14.053250854441
H      8.040078008984  10.213135974200  25.273971237855
C     12.140810030226  13.316278342523  14.447924006441
C     10.672537603018  14.678361591690  13.014199286857
H      8.850826947530  15.202133509651  13.953927109129
C     11.888007360961  13.968583454140  13.244662682553
H     13.008229057789  12.865206040912  14.592231137020
H     10.530788385352  15.146600306888  12.187407082882
H     12.542330157181  13.948594433092  12.556007308016
C     13.848557506397  17.062073443196  17.926380073644
C     14.874524977953  17.636633872957  17.098058752271
C     12.605153902913  16.615786062197  17.344775981790
C     14.055115606326  16.936674606499  19.322265242579
C     14.697481945285  17.712792343123  15.691859873269
H     15.699604599009  17.939150613868  17.509642432524
C     12.400583148362  16.786125034932  15.930372916019
C     11.587052637559  16.066405827291  18.170874637000
C     13.026023166185  16.405111801132  20.153213288724
H     14.891357707564  17.241914960099  19.700238632325
C     15.722822602560  18.235828832571  14.833113478505
C     13.423829587196  17.316124312980  15.123575839415
H     11.587536923402  16.490077597448  15.539132529029
H     10.772663544300  15.732176987800  17.796956003498
C     11.773888335877  15.979541586039  19.590005577147
C     13.243184646445  16.282446631886  21.571907526987
C     15.469866767641  18.422622334309  13.475648100091
H     16.567585905029  18.552527311767  15.222361632754
C     13.197538704497  17.498949576069  13.720678378809
C     10.743559150566  15.433609993073  20.425812631116
C     12.224782057238  15.757293853409  22.387682535691
H     14.064792706153  16.553627841965  21.977621186645
C     14.209776824086  18.033816502997  12.900040412236
H     16.155949844175  18.852745336172  12.897399146301
H     12.350887766587  17.274943665543  13.355119908745
H      9.936826441636  15.143459351898  20.004904020718
C     10.957890828424  15.329534282456  21.817202502468
C     12.448358490945  15.590738131154  23.798533573398
H     14.066271767931  18.163218125133  11.964023113316
C      9.970779872169  14.723673417898  22.656475832049
C     11.459616130897  15.027065850671  24.615471970365
H     13.267163045612  15.880392708089  24.187783799369
C     10.195705069656  14.595820996896  24.035982391193
H      9.183852102452  14.384033903906  22.254624491887
H     11.621224179674  14.899643801330  25.548903214682
H      9.518606636315  14.153950972092  24.600337971273
