72
frame=1 time_fs=1.000000
C         8.1929789056        12.5692164156        19.8822758555
C         7.2376098708        12.5553048888        20.9073645212
C         9.4893186258        11.8963327275        20.0732764864
C         7.9223657445        13.2483922359        18.6598944266
C         7.4909696298        11.9052147878        22.1219418490
H         6.3078110762        13.0775256207        20.7869318590
C         9.6607837708        11.2200718379        21.3339315203
C        10.4750557274        11.9866319911        19.0353956352
C         8.9178690750        13.2305029591        17.6327830735
H         6.9678783551        13.6975297612        18.4318233061
C         6.4496989606        11.9661194786        23.1370422343
C         8.7262941382        11.2152089099        22.3703993164
H        10.6323388464        10.7324881130        21.4944000691
H        11.4315052446        11.5234184190        19.2525196165
C        10.2064531418        12.5897874690        17.7880798409
C         8.7454460806        13.8932126509        16.4127119896
C         6.7268172215        11.3919013492        24.3658813246
H         5.4936117910        12.3642537916        22.8440654585
C         8.9094755281        10.5818453433        23.6854630252
C        11.2120295361        12.6736815560        16.7911796045
C         9.6848450701        13.9798541206        15.3673136857
H         7.7796764560        14.3243831814        16.2140748056
C         7.9196693327        10.7124429179        24.6476142196
H         5.9490888868        11.3551962353        25.1343834192
H         9.8545469243        10.0687327604        23.8984487739
H        12.1583595606        12.1915623167        17.0931878206
C        10.9535847975        13.2947343852        15.5475609678
C         9.4653027461        14.6537128167        14.1090951624
H         7.8917831962        10.3111262031        25.6504048768
C        11.8284858992        13.2283964978        14.4099507293
C        10.3894790956        14.6749268101        13.0678855573
H         8.4954524205        15.0748910294        13.8692936664
C        11.5480126419        13.8399586438        13.1964382395
H        12.7807406616        12.7385912485        14.5762430835
H        10.2350463105        15.2214470421        12.1380226706
H        12.2878973440        13.8549279433        12.4134200323
C        13.7738942835        17.0468779697        18.0685167625
C        14.7542910463        17.5947194081        17.2253205786
C        12.5952236936        16.6334251307        17.4783563443
C        13.9821372138        16.9189551064        19.4681518154
C        14.6726457355        17.7562901398        15.7995076718
H        15.6876320671        17.9255539469        17.6586904283
C        12.4425552086        16.8062377246        16.1016612307
C        11.6381090311        16.1035113234        18.3871808602
C        12.9940261798        16.3832931931        20.3604435872
H        14.9244390222        17.2449519504        19.9209612651
C        15.6212033404        18.3391067091        14.9236527580
C        13.4586770308        17.2886880225        15.2146381354
H        11.5223455064        16.4991838927        15.6540195250
H        10.6695738560        15.8571704106        18.0018569004
C        11.7784011727        15.9660866743        19.8037846854
C        13.1352610309        16.2295780380        21.7613302032
C        15.4527843384        18.3991655855        13.5384278385
H        16.5762882502        18.5843363551        15.3707847545
C        13.2737555645        17.4044878829        13.7901918547
C        10.8885226969        15.2868724997        20.6603665378
C        12.1641450117        15.7111776013        22.6874807924
H        14.0106617484        16.5572009046        22.3069168095
C        14.2589849756        17.9858570800        12.9796453168
H        16.2391090942        18.8255650366        12.9324967168
H        12.3371120323        17.1427032878        13.3323377985
H        10.0589806620        14.7776599487        20.2222023942
C        11.0158551051        15.1590142332        22.0916015387
C        12.3770066133        15.5817205640        24.1217780854
H        14.1197919891        18.1267245368        11.9283626479
C        10.1672883027        14.4855542205        22.9804192138
C        11.4257359428        14.9460506897        24.9608885216
H        13.3493126268        15.8745439223        24.5137777209
C        10.3165099428        14.3953881878        24.3890392781
H         9.3465384981        13.9419469006        22.5112425494
H        11.7158926644        14.7858405281        25.9801372327
H         9.6788799592        13.7681613173        24.9819167992
