72
frame=4 time_fs=4.000000
C         8.1966124757        12.5728398925        19.8700933024
C         7.2429542468        12.5484596464        20.9139291712
C         9.4833040580        11.9009574548        20.0746249446
C         7.9379739467        13.2338559369        18.6547569622
C         7.4749925193        11.9119792841        22.1255572512
H         6.2712053808        13.0876077684        20.7722784782
C         9.6774658949        11.2217715412        21.3278574023
C        10.4660717253        11.9773573034        19.0477497736
C         8.9183444671        13.2329959919        17.6339074616
H         6.9548222312        13.7326946452        18.4553284674
C         6.4673611392        11.9517406342        23.1386167813
C         8.7244087190        11.2132165023        22.3769256120
H        10.6083774703        10.7351123580        21.4943839199
H        11.4500081911        11.5146625243        19.2347373282
C        10.2119368046        12.6000361553        17.8032903691
C         8.7373593685        13.8988678991        16.3977780165
C         6.7046236781        11.3964503771        24.3558809323
H         5.4738088340        12.4153266473        22.8694499830
C         8.9098499877        10.5893234324        23.6828044631
C        11.2119810885        12.6706545902        16.7905063847
C         9.6874985856        13.9721721478        15.3674277394
H         7.7554920190        14.3764148959        16.2306438852
C         7.9276001041        10.7102819530        24.6409223946
H         5.9628767714        11.3791989938        25.1297566733
H         9.8277281490        10.0664637978        23.8914703006
H        12.1298481472        12.1988445968        17.0313040845
C        10.9521495373        13.2932779292        15.5466879016
C         9.4645730041        14.6497441507        14.0998638757
H         7.9607791410        10.2795585535        25.6642770400
C        11.8322506815        13.2361168249        14.4107571800
C        10.3868679718        14.6604076696        13.0776003107
H         8.4937345493        15.1387863503        13.9194712509
C        11.5517289766        13.8542950965        13.2131183449
H        12.7870267379        12.7065411415        14.5531961558
H        10.2178120856        15.2063929593        12.1478757015
H        12.3022499458        13.8265689380        12.3804181319
C        13.7928473889        17.0525968053        18.0705031141
C        14.7594497066        17.5972730004        17.2064805176
C        12.5855069216        16.6298995584        17.4960498121
C        13.9646809375        16.9120180155        19.4737454947
C        14.6543163930        17.7507307776        15.8029605727
H        15.6808736267        17.9273343963        17.6747447522
C        12.4596289508        16.8077335443        16.0932505252
C        11.6404547025        16.1108450791        18.3936344844
C        12.9991646535        16.3867127863        20.3571289639
H        14.8966220244        17.2374021992        19.8921611848
C        15.6274419784        18.3277174855        14.9294180225
C        13.4513493311        17.2918896014        15.2134218988
H        11.4832765533        16.4862726070        15.6436577943
H        10.6545833607        15.8205258562        17.9758344825
C        11.7877788115        15.9585389418        19.7943636456
C        13.1239838424        16.2296234576        21.7776146532
C        15.4580701735        18.4064953039        13.5406766147
H        16.5665361518        18.6203248482        15.3564694976
C        13.2831998188        17.4124191589        13.8002094056
C        10.8905080393        15.2885055876        20.6786898244
C        12.1776285847        15.7107123025        22.6829408484
H        14.0363500797        16.5682560417        22.2539494507
C        14.2561820800        17.9826898181        12.9787005886
H        16.2343067258        18.8205244674        12.9302681271
H        12.3190481423        17.1192203317        13.3313839863
H        10.0153404758        14.7809493390        20.1979987800
C        11.0254558048        15.1651367988        22.0893083522
C        12.3676764128        15.5779355951        24.1091897837
H        14.1030916971        18.1177233762        11.8946612853
C        10.1514620863        14.4768134657        22.9821956258
C        11.4478230024        14.9551103911        24.9581996797
H        13.3212967920        15.8888238528        24.5197953167
C        10.3117257421        14.3890395334        24.3767134008
H         9.3600250991        13.9728362837        22.5394249228
H        11.6881856831        14.7904188264        26.0135559844
H         9.6480965552        13.7726174873        24.9820601234
