72
title
C     18.511056756038  30.496117192787  32.743471179185
C     19.515065746925  30.470108116342  31.740792228047
C     17.293329433737  31.211338496860  32.519119670704
C     18.713261544743  29.806842889075  33.960668273443
C     19.305622586724  31.147543663425  30.528315024356
H     20.338759908999  29.957673553586  31.885805147787
C     17.081717033875  31.898637938513  31.287586739096
C     16.281305807132  31.235215856629  33.514187967936
C     17.701175927577  29.820346701744  34.956504249297
H     19.539608660764  29.310282858161  34.120826405859
C     20.316608696099  31.110159237032  29.506406225942
C     18.080044847666  31.862832064546  30.298413975541
H     16.239577554923  32.394568647808  31.131095753763
H     15.436796335249  31.719231510805  33.341862273502
C     16.479480636559  30.542284831523  34.730781877442
C     17.900525981665  29.126391029420  36.182518835910
C     20.100724526010  31.770266303590  28.292353299307
H     21.150558436552  30.617637876039  29.672398518958
C     17.875163785354  32.544066271016  29.043912493948
C     15.467341510075  30.560249513692  35.725599368863
C     16.904818185913  29.166050562954  37.172251797041
H     18.733111612277  28.632114034660  36.336187263077
C     18.867479953047  32.486673239625  28.056569966294
H     20.773262407280  31.738304468971  27.569254898301
H     17.018005859925  33.021426451992  28.913476636465
H     14.626770410859  31.058154927294  35.572563607065
C     15.677413160356  29.892740602194  36.947326119236
C     17.120270364748  28.490825486252  38.425862502536
H     18.757477646383  32.955543727668  27.198102729487
C     14.672921816852  29.921101052160  37.969829709557
C     16.125550091994  28.540151243514  39.417968952483
H     17.969487820442  28.005496954416  38.560746301562
C     14.891252774502  29.253314659320  39.190257617688
H     13.828722263154  30.414134951921  37.799190713264
H     16.259997078901  28.077110710578  40.277362694508
H     14.216521066167  29.283175756600  39.905609060197
C     19.242617538028  26.105877357538  34.545124068686
C     18.240833331388  25.525531854965  35.367843297425
C     20.468066166923  26.587721270021  35.140045791244
C     19.047867017359  26.204196588547  33.153649387818
C     18.432284420043  25.427693558818  36.755245511991
H     17.412002409769  25.192366459047  34.944496119775
C     20.657754117464  26.483438316697  36.554106890618
C     21.472546437451  27.156069566022  34.322767798991
C     20.054778109693  26.759645146919  32.333368788484
H     18.204177045235  25.895992989655  32.743282487677
C     17.425481458995  24.842647633727  37.581478421238
C     19.653804412466  25.910769267143  37.351811337930
H     21.489759266575  26.837790045986  36.959308776353
H     22.308704725207  27.479095785246  34.735431299886
C     21.275059192048  27.243768421423  32.924865176109
C     19.870417150734  26.867095804063  30.918817117295
C     17.623907029068  24.740717326768  38.968403197791
H     16.585521419296  24.518735088257  37.160610805207
C     19.841604659230  25.794576628858  38.766280926889
C     22.279624757381  27.825137044554  32.106445367836
C     20.866083234496  27.446319404842  30.122116460454
H     19.037330940994  26.545808349678  30.498548435231
C     18.847847275730  25.224345379931  39.571023504104
H     16.932567718642  24.312312927192  39.531469084959
H     20.682382928279  26.119327454037  39.160248721777
H     23.115436860897  28.130605986069  32.529338849790
C     22.098161537985  27.923887216623  30.716601218260
C     20.684671600920  27.560584508819  28.706162182774
H     18.991178913835  25.133095213185  40.545375807332
C     23.108029351514  28.506502499720  29.886970805831
C     21.686309640326  28.125880133904  27.901618027348
H     19.859079875029  27.206503534739  28.300610843162
C     22.911829724352  28.618879330653  28.504659367840
H     23.948745727070  28.817529553426  30.313983430995
H     21.555724479998  28.218492340071  26.927999252495
H     23.602428950195  29.054231102557  27.934786218060
