72
frame=24 time_fs=24.000000
C        23.6193946276        37.9830082542        34.9650053031
C        22.5653686133        37.9525710487        35.9442039971
C        24.8399612900        37.2079394910        35.2407448260
C        23.6400575295        38.7562077474        33.7830574348
C        22.6945077133        37.2011891252        37.0874543438
H        21.6309455961        38.3967790306        35.7243366704
C        24.9573538653        36.5549425339        36.5122198242
C        25.9147531574        37.1977493455        34.3601854482
C        24.6378500092        38.6067226736        32.8295178016
H        22.7552589867        39.3803622325        33.5880477649
C        21.5578623895        37.0610302146        38.0175554312
C        23.9542079257        36.5898692172        37.4372177642
H        25.9069510750        35.9706160144        36.6969626399
H        26.7661289114        36.5628435303        34.5600479529
C        25.8577081255        37.8714253538        33.1424630637
C        24.4880116716        39.1798012750        31.5366935604
C        21.7159166329        36.3982791405        39.1962371237
H        20.6853291644        37.5136559672        37.6353038568
C        24.0418738603        35.8767487869        38.6839885231
C        26.9141302774        37.9742674995        32.1497414329
C        25.5178381090        39.2404617091        30.6249036477
H        23.5784543858        39.7457338552        31.3606995740
C        22.9666823002        35.8327381784        39.5294718375
H        20.8844689923        36.4841484765        39.9649754003
H        25.0537020138        35.4288507127        38.8425938579
H        27.7798626705        37.3575456839        32.2568328370
C        26.7354918595        38.5639394043        30.9091760044
C        25.2683995777        39.8490120293        29.3441246914
H        23.0996790404        35.2955915480        40.5132528671
C        27.7417101845        38.4768063933        29.7914595622
C        26.2213598583        39.7596302421        28.3671465124
H        24.2902929733        40.3341864954        29.1422657418
C        27.4207993293        39.0257540520        28.5410996436
H        28.5944868816        37.8928755292        29.8842145136
H        26.1071224331        40.3140403678        27.4637763890
H        28.3557330650        39.2012958607        27.9100676177
C        26.3789457749        33.3292931636        35.1026731995
C        25.3441877754        32.7808380555        35.9474742102
C        27.5845441472        33.8827101134        35.7190962549
C        26.3706087501        33.3645932971        33.7156183738
C        25.4128683062        32.7539778979        37.3317271497
H        24.5384940722        32.2263835195        35.4716460939
C        27.6087336308        33.8734081740        37.1515787815
C        28.7133571087        34.1968766588        34.9860759723
C        27.3605264760        33.9730648899        32.9449765102
H        25.4943167986        33.1704819264        33.1356703062
C        24.4243717100        32.0824658825        38.2519852994
C        26.5412694631        33.4326621769        37.9074299961
H        28.5288605683        34.1688618333        37.7364705230
H        29.6528994224        34.4778081496        35.4897412729
C        28.6351768107        34.4008047246        33.5868991530
C        27.1487337495        34.0986370352        31.5629319738
C        24.6499538350        32.0247385469        39.6026559766
H        23.5145580556        31.6836916574        37.8436527663
C        26.6897674171        33.3835181413        39.3455687802
C        29.6570174685        34.8991488637        32.7274932092
C        28.1132306152        34.6694184128        30.7035462165
H        26.1032849793        33.9934734419        31.1607522861
C        25.8889043435        32.5802912285        40.1038706360
H        24.0500615049        31.3768911661        40.2820770629
H        27.5637480143        33.7031330232        39.8883111085
H        30.5842278491        35.3719974525        32.9857976516
C        29.3891163638        35.0305791315        31.3300302238
C        27.9428626065        34.6601083988        29.2766755371
H        26.0384923685        32.6040144040        41.2380733932
C        30.3303886606        35.5784084580        30.4495838904
C        28.9170146754        35.1712709657        28.5507205297
H        27.0365291049        34.2142733849        28.8781536432
C        30.1213251490        35.6702772220        29.0751960937
H        31.3110569319        35.9025390600        30.8670588896
H        28.8337877523        35.0814571874        27.4804766809
H        30.9126783622        36.0402513667        28.4479550927
