180
Pentacene molecules for bond visualization
C 5.627065 3.265672 0.806861
C 4.635151 2.694104 1.639025
C 4.813822 2.593023 3.013781
C 3.817811 2.007165 3.876869
C 4.015784 1.909963 5.212267
C 5.223235 2.392584 5.797030
C 6.202199 2.943678 5.035151
C 6.038388 3.068939 3.612601
C 0.739012 3.634232 2.802929
C 0.582583 3.753648 1.411304
C 5.948945 6.644475 13.476268
C 2.849132 7.705690 0.992411
C 1.864769 7.710599 2.011530
C 2.060404 7.051348 3.211982
C 1.076173 7.068195 4.249375
C 1.287373 6.424659 5.421713
C 2.505231 5.710212 5.650839
C 3.462897 5.667179 4.692165
C 3.291083 6.327031 3.438297
C 4.263661 6.299825 2.448697
C 4.093229 6.976541 1.224349
C 2.443690 3.984032 13.836122
H 3.829830 2.372978 1.249651
H 3.008011 1.683173 3.501552
H 3.347350 1.518246 5.761888
H 5.344371 2.327696 6.737431
H 0.726715 3.250083 5.447015
H 1.540379 3.951836 3.203548
H 0.314350 0.499664 1.866745
H 6.536772 7.537055 4.113024
H 6.896169 6.447899 6.097846
H 2.643644 5.265126 6.478786
H 4.265515 5.186004 4.858035
H 5.064856 5.812302 2.600511
H 5.135440 6.327281 13.103762
H 1.630038 4.456505 13.705394
C 1.885615 7.689757 13.249953
C 2.877529 8.261325 12.417790
C 2.698858 8.362406 11.043033
C 3.694869 8.948264 10.179945
C 3.496896 9.045466 8.844547
C 2.289445 8.562846 8.259784
C 1.310481 8.011751 9.021663
C 1.474292 7.886490 10.444213
C 6.773668 7.321198 11.253885
C 6.930097 7.201781 12.645510
C 1.563736 4.310954 0.580546
C 4.663548 3.249739 13.064403
C 5.647911 3.244830 12.045284
C 5.452277 3.904081 10.844832
C 6.436507 3.887234 9.807439
C 6.225307 4.530770 8.635101
C 5.007449 5.245217 8.405975
C 4.049783 5.288250 9.364650
C 4.221597 4.628398 10.618517
C 3.249019 4.655604 11.608117
C 3.419451 3.978888 12.832466
C 5.068990 6.971397 0.220692
H 3.682850 8.582451 12.807163
H 4.504669 9.272256 10.555262
H 4.165330 9.437183 8.294926
H 2.168309 8.627733 7.319383
H 6.785965 7.705346 8.609799
H 5.972301 7.003593 10.853266
H 7.198330 10.455765 12.190069
H 0.975908 3.418374 9.943790
H 0.616511 4.507530 7.958968
H 4.869036 5.690303 7.578028
H 3.247165 5.769425 9.198779
H 2.447824 5.143127 11.456303
H 2.377240 4.628148 0.953052
H 5.882642 6.498924 0.351420
C -0.648235 3.265672 0.806861
C -1.640149 2.694104 1.639025
C -1.461478 2.593023 3.013781
C -2.457489 2.007165 3.876869
C -2.259516 1.909963 5.212267
C -1.052065 2.392584 5.797030
C -0.073101 2.943678 5.035151
C -0.236912 3.068939 3.612601
C -5.536288 3.634232 2.802929
C -5.692717 3.753648 1.411304
C -0.326355 6.644475 13.476268
C -3.426168 7.705690 0.992411
C -4.410531 7.710599 2.011530
C -4.214896 7.051348 3.211982
C -5.199127 7.068195 4.249375
C -4.987927 6.424659 5.421713
C -3.770069 5.710212 5.650839
C -2.812403 5.667179 4.692165
C -2.984217 6.327031 3.438297
C -2.011639 6.299825 2.448697
C -2.182071 6.976541 1.224349
C -3.831610 3.984032 13.836122
H -2.445470 2.372978 1.249651
H -3.267289 1.683173 3.501552
H -2.927950 1.518246 5.761888
H -0.930929 2.327696 6.737431
H -5.548585 3.250083 5.447015
H -4.734921 3.951836 3.203548
H -5.960950 0.499664 1.866745
H 0.261472 7.537055 4.113024
H 0.620869 6.447899 6.097846
H -3.631656 5.265126 6.478786
H -2.009785 5.186004 4.858035
H -1.210444 5.812302 2.600511
H -1.139860 6.327281 13.103762
H -4.645262 4.456505 13.705394
C 1.149497 0.011161 13.249953
C 2.141411 0.582729 12.417790
C 1.962740 0.683810 11.043033
C 2.958750 1.269668 10.179945
C 2.760778 1.366870 8.844547
C 1.553326 0.884249 8.259784
C 0.574362 0.333155 9.021663
C 0.738173 0.207894 10.444213
C 6.037549 -0.357399 11.253885
C 6.193979 -0.476815 12.645510
C 0.827617 -3.367642 0.580546
C 3.927429 -4.428857 13.064403
C 4.911792 -4.433766 12.045284
C 4.716158 -3.774515 10.844832
C 5.700388 -3.791363 9.807439
C 5.489188 -3.147826 8.635101
C 4.271331 -2.433379 8.405975
C 3.313664 -2.390346 9.364650
C 3.485478 -3.050198 10.618517
C 2.512900 -3.022992 11.608117
C 2.683332 -3.699708 12.832466
C 4.332872 -0.707199 0.220692
H 2.946731 0.903855 12.807163
H 3.768551 1.593660 10.555262
H 3.429211 1.758587 8.294926
H 1.432190 0.949137 7.319383
H 6.049846 0.026750 8.609799
H 5.236182 -0.675003 10.853266
H 6.462211 2.777169 12.190069
H 0.239789 -4.260222 9.943790
H -0.119608 -3.171066 7.958968
H 4.132917 -1.988293 7.578028
H 2.511046 -1.909172 9.198779
H 1.711706 -2.535469 11.456303
H 1.641121 -3.050448 0.953052
H 5.146523 -1.179673 0.351420
C 4.890946 -4.412925 0.806861
C 3.899032 -4.984492 1.639025
C 4.077703 -5.085573 3.013781
C 3.081693 -5.671431 3.876869
C 3.279665 -5.768634 5.212267
C 4.487117 -5.286013 5.797030
C 5.466081 -4.734918 5.035151
C 5.302270 -4.609657 3.612601
C 0.002894 -4.044365 2.802929
C -0.153536 -3.924948 1.411304
C 5.212826 -1.034121 13.476268
C 2.113014 0.027094 0.992411
C 1.128650 0.032003 2.011530
C 1.324285 -0.627248 3.211982
C 0.340054 -0.610401 4.249375
C 0.551254 -1.253937 5.421713
C 1.769112 -1.968385 5.650839
C 2.726779 -2.011418 4.692165
C 2.554965 -1.351565 3.438297
C 3.527543 -1.378771 2.448697
C 3.357110 -0.702055 1.224349
C 1.707571 -3.694564 13.836122
H 3.093712 -5.305618 1.249651
H 2.271892 -5.995424 3.501552
H 2.611231 -6.160350 5.761888
H 4.608253 -5.350901 6.737431
H -0.009403 -4.428514 5.447015
H 0.804261 -3.726760 3.203548
H -0.421769 -7.178933 1.866745
H 5.800654 -0.141542 4.113024
H 6.160051 -1.230697 6.097846
H 1.907525 -2.413470 6.478786
H 3.529396 -2.492592 4.858035
H 4.328737 -1.866294 2.600511
H 4.399322 -1.351315 13.103762
H 0.893919 -3.222091 13.705394
