72
Lattice="6.2753 0.0 0.0 0.7361186276036579 7.678596213247244 0.0 0.5012614292327995 3.2768328530296214 14.056814048455973" Properties=species:S:1:pos:R:3:spacegroup_kinds:I:1 spacegroup="P -1" unit_cell=conventional pbc="T T T"
C        5.62706478       3.26567157       0.80686113        0
C        1.88561527       7.68975750      13.24995292        0
C        4.63515060       2.69410403       1.63902452        1
C        2.87752946       8.26132504      12.41778953        1
C        4.81382169       2.59302335       3.01378093        2
C        2.69885837       8.36240571      11.04303312        2
C        3.81781150       2.00716478       3.87686931        3
C        3.69486856       8.94826429      10.17994473        3
C        4.01578388       1.90996258       5.21226665        4
C        3.49689617       9.04546649       8.84454740        4
C        5.22323545       2.39258352       5.79703011        5
C        2.28944461       8.56284555       8.25978393        5
C        6.20219950       2.94367796       5.03515079        6
C        1.31048056       8.01175111       9.02166326        6
C        6.03838840       3.06893895       3.61260121        7
C        1.47429166       7.88649012      10.44421284        7
C        0.73901217       3.63423152       2.80292872        8
C        6.77366789       7.32119755      11.25388533        8
C        0.58258281       3.75364793       1.41130413        9
C        6.93009725       7.20178114      12.64550992        9
C        5.94894452       6.64447525      13.47626763       10
C        1.56373554       4.31095382       0.58054642       10
C        2.84913219       7.70568995       0.99241107       11
C        4.66354787       3.24973911      13.06440298       11
C        1.86476902       7.71059887       2.01153009       12
C        5.64791104       3.24483020      12.04528396       12
C        2.06040355       7.05134808       3.21198201       13
C        5.45227651       3.90408099      10.84483204       13
C        1.07617307       7.06819547       4.24937489       14
C        6.43650698       3.88723359       9.80743916       14
C        1.28737301       6.42465895       5.42171318       15
C        6.22530704       4.53077012       8.63510087       15
C        2.50523056       5.71021170       5.65083925       16
C        5.00744950       5.24521737       8.40597480       16
C        3.46289741       5.66717871       4.69216453       17
C        4.04978265       5.28825036       9.36464952       17
C        3.29108316       6.32703115       3.43829672       18
C        4.22159690       4.62839792      10.61851733       18
C        4.26366125       6.29982492       2.44869701       19
C        3.24901881       4.65560415      11.60811704       19
C        4.09322907       6.97654088       1.22434850       20
C        3.41945098       3.97888818      12.83246554       20
C        2.44368991       3.98403188      13.83612207       21
C        5.06899015       6.97139718       0.22069198       21
H        3.82983032       2.37297787       1.24965077       22
H        3.68284974       8.58245119      12.80716328       22
H        3.00801088       1.68317258       3.50155238       23
H        4.50466918       9.27225649      10.55526167       23
H        3.34734996       1.51824578       5.76188808       24
H        4.16533009       9.43718329       8.29492597       24
H        5.34437144       2.32769557       6.73743097       25
H        2.16830862       8.62773349       7.31938308       25
H        0.72671518       3.25008269       5.44701544       26
H        6.78596488       7.70534637       8.60979860       26
H        1.54037938       3.95183627       3.20354792       27
H        5.97230067       7.00359280      10.85326613       27
H        0.31434996       0.49966361       1.86674491       28
H        7.19833009      10.45576546      12.19006914       28
H        6.53677226       7.53705467       4.11302379       29
H        0.97590779       3.41837440       9.94379026       29
H        6.89616921       6.44789917       6.09784593       30
H        0.61651085       4.50752989       7.95896811       30
H        2.64364403       5.26512581       6.47878559       31
H        4.86903603       5.69030326       7.57802845       31
H        4.26551503       5.18600437       4.85803494       32
H        3.24716502       5.76942469       9.19877911       32
H        5.06485563       5.81230231       2.60051060       33
H        2.44782442       5.14312676      11.45630345       33
H        5.13544033       6.32728129      13.10376206       34
H        2.37723972       4.62814777       0.95305199       34
H        1.63003796       4.45650539      13.70539370       35
H        5.88264209       6.49892368       0.35142035       35
