288
Lattice="12.5506 0.0 0.0 1.4722372552073157 15.357192426494487 0.0 0.5012614292327995 3.2768328530296214 14.056814048455973" Properties=species:S:1:pos:R:3:spacegroup_kinds:I:1 pbc="T T T"
C        5.62706478       3.26567157       0.80686113        0
C        1.88561527       7.68975750      13.24995292        0
C        4.63515060       2.69410403       1.63902452        1
C        2.87752946       8.26132504      12.41778953        1
C        4.81382169       2.59302335       3.01378093        2
C        2.69885837       8.36240571      11.04303312        2
C        3.81781150       2.00716478       3.87686931        3
C        3.69486856       8.94826429      10.17994473        3
C        4.01578388       1.90996258       5.21226665        4
C        3.49689617       9.04546649       8.84454740        4
C        5.22323545       2.39258352       5.79703011        5
C        2.28944461       8.56284555       8.25978393        5
C        6.20219950       2.94367796       5.03515079        6
C        1.31048056       8.01175111       9.02166326        6
C        6.03838840       3.06893895       3.61260121        7
C        1.47429166       7.88649012      10.44421284        7
C        0.73901217       3.63423152       2.80292872        8
C        6.77366789       7.32119755      11.25388533        8
C        0.58258281       3.75364793       1.41130413        9
C        6.93009725       7.20178114      12.64550992        9
C        5.94894452       6.64447525      13.47626763       10
C        1.56373554       4.31095382       0.58054642       10
C        2.84913219       7.70568995       0.99241107       11
C        4.66354787       3.24973911      13.06440298       11
C        1.86476902       7.71059887       2.01153009       12
C        5.64791104       3.24483020      12.04528396       12
C        2.06040355       7.05134808       3.21198201       13
C        5.45227651       3.90408099      10.84483204       13
C        1.07617307       7.06819547       4.24937489       14
C        6.43650698       3.88723359       9.80743916       14
C        1.28737301       6.42465895       5.42171318       15
C        6.22530704       4.53077012       8.63510087       15
C        2.50523056       5.71021170       5.65083925       16
C        5.00744950       5.24521737       8.40597480       16
C        3.46289741       5.66717871       4.69216453       17
C        4.04978265       5.28825036       9.36464952       17
C        3.29108316       6.32703115       3.43829672       18
C        4.22159690       4.62839792      10.61851733       18
C        4.26366125       6.29982492       2.44869701       19
C        3.24901881       4.65560415      11.60811704       19
C        4.09322907       6.97654088       1.22434850       20
C        3.41945098       3.97888818      12.83246554       20
C        2.44368991       3.98403188      13.83612207       21
C        5.06899015       6.97139718       0.22069198       21
H        3.82983032       2.37297787       1.24965077       22
H        3.68284974       8.58245119      12.80716328       22
H        3.00801088       1.68317258       3.50155238       23
H        4.50466918       9.27225649      10.55526167       23
H        3.34734996       1.51824578       5.76188808       24
H        4.16533009       9.43718329       8.29492597       24
H        5.34437144       2.32769557       6.73743097       25
H        2.16830862       8.62773349       7.31938308       25
H        0.72671518       3.25008269       5.44701544       26
H        6.78596488       7.70534637       8.60979860       26
H        1.54037938       3.95183627       3.20354792       27
H        5.97230067       7.00359280      10.85326613       27
H        0.31434996       0.49966361       1.86674491       28
H        7.19833009      10.45576546      12.19006914       28
H        6.53677226       7.53705467       4.11302379       29
H        0.97590779       3.41837440       9.94379026       29
H        6.89616921       6.44789917       6.09784593       30
H        0.61651085       4.50752989       7.95896811       30
H        2.64364403       5.26512581       6.47878559       31
H        4.86903603       5.69030326       7.57802845       31
H        4.26551503       5.18600437       4.85803494       32
H        3.24716502       5.76942469       9.19877911       32
H        5.06485563       5.81230231       2.60051060       33
H        2.44782442       5.14312676      11.45630345       33
H        5.13544033       6.32728129      13.10376206       34
H        2.37723972       4.62814777       0.95305199       34
H        1.63003796       4.45650539      13.70539370       35
H        5.88264209       6.49892368       0.35142035       35
C        6.36318341      10.94426778       0.80686113        0
C        2.62173390      15.36835371      13.24995292        0
C        5.37126923      10.37270024       1.63902452        1
C        3.61364808      15.93992125      12.41778953        1
C        5.54994031      10.27161956       3.01378093        2
C        3.43497700      16.04100193      11.04303312        2
C        4.55393013       9.68576099       3.87686931        3
C        4.43098719      16.62686050      10.17994473        3
C        4.75190251       9.58855879       5.21226665        4
C        4.23301480      16.72406270       8.84454740        4
C        5.95935408      10.07117973       5.79703011        5
C        3.02556324      16.24144176       8.25978393        5
C        6.93831813      10.62227417       5.03515079        6
C        2.04659919      15.69034732       9.02166326        6
C        6.77450703      10.74753516       3.61260121        7
C        2.21041029      15.56508633      10.44421284        7
C        1.47513080      11.31282773       2.80292872        8
C        7.50978651      14.99979376      11.25388533        8
C        1.31870143      11.43224414       1.41130413        9
C        7.66621588      14.88037735      12.64550992        9
C        6.68506315      14.32307146      13.47626763       10
C        2.29985416      11.98955003       0.58054642       10
C        3.58525082      15.38428617       0.99241107       11
C        5.39966650      10.92833533      13.06440298       11
C        2.60088765      15.38919508       2.01153009       12
C        6.38402967      10.92342641      12.04528396       12
C        2.79652217      14.72994429       3.21198201       13
C        6.18839514      11.58267720      10.84483204       13
C        1.81229170      14.74679169       4.24937489       14
C        7.17262561      11.56582981       9.80743916       14
C        2.02349164      14.10325516       5.42171318       15
C        6.96142567      12.20936633       8.63510087       15
C        3.24134919      13.38880791       5.65083925       16
C        5.74356812      12.92381358       8.40597480       16
C        4.19901604      13.34577492       4.69216453       17
C        4.78590127      12.96684657       9.36464952       17
C        4.02720179      14.00562736       3.43829672       18
C        4.95771552      12.30699413      10.61851733       18
C        4.99977988      13.97842113       2.44869701       19
C        3.98513744      12.33420036      11.60811704       19
C        4.82934770      14.65513709       1.22434850       20
C        4.15556961      11.65748440      12.83246554       20
C        3.17980853      11.66262810      13.83612207       21
C        5.80510878      14.64999340       0.22069198       21
H        4.56594895      10.05157409       1.24965077       22
H        4.41896836      16.26104741      12.80716328       22
H        3.74412950       9.36176879       3.50155238       23
H        5.24078781      16.95085270      10.55526167       23
H        4.08346859       9.19684199       5.76188808       24
H        4.90144872      17.11577950       8.29492597       24
H        6.08049007      10.00629179       6.73743097       25
H        2.90442724      16.30632971       7.31938308       25
H        1.46283381      10.92867891       5.44701544       26
H        7.52208351      15.38394259       8.60979860       26
H        2.27649801      11.63043248       3.20354792       27
H        6.70841930      14.68218901      10.85326613       27
H        1.05046859       8.17825982       1.86674491       28
H        7.93444872      18.13436167      12.19006914       28
H        7.27289089      15.21565088       4.11302379       29
H        1.71202642      11.09697061       9.94379026       29
H        7.63228784      14.12649539       6.09784593       30
H        1.35262947      12.18612611       7.95896811       30
H        3.37976266      12.94372202       6.47878559       31
H        5.60515465      13.36889947       7.57802845       31
H        5.00163366      12.86460059       4.85803494       32
H        3.98328365      13.44802090       9.19877911       32
H        5.80097426      13.49089852       2.60051060       33
H        3.18394305      12.82172297      11.45630345       33
H        5.87155896      14.00587750      13.10376206       34
H        3.11335835      12.30674399       0.95305199       34
H        2.36615659      12.13510160      13.70539370       35
H        6.61876072      14.17751989       0.35142035       35
C       11.90236478       3.26567157       0.80686113        0
C        8.16091527       7.68975750      13.24995292        0
C       10.91045060       2.69410403       1.63902452        1
C        9.15282946       8.26132504      12.41778953        1
C       11.08912169       2.59302335       3.01378093        2
C        8.97415837       8.36240571      11.04303312        2
C       10.09311150       2.00716478       3.87686931        3
C        9.97016856       8.94826429      10.17994473        3
C       10.29108388       1.90996258       5.21226665        4
C        9.77219617       9.04546649       8.84454740        4
C       11.49853545       2.39258352       5.79703011        5
C        8.56474461       8.56284555       8.25978393        5
C       12.47749950       2.94367796       5.03515079        6
C        7.58578056       8.01175111       9.02166326        6
C       12.31368840       3.06893895       3.61260121        7
C        7.74959166       7.88649012      10.44421284        7
C        7.01431217       3.63423152       2.80292872        8
C       13.04896789       7.32119755      11.25388533        8
C        6.85788281       3.75364793       1.41130413        9
C       13.20539725       7.20178114      12.64550992        9
C       12.22424452       6.64447525      13.47626763       10
C        7.83903554       4.31095382       0.58054642       10
C        9.12443219       7.70568995       0.99241107       11
C       10.93884787       3.24973911      13.06440298       11
C        8.14006902       7.71059887       2.01153009       12
C       11.92321104       3.24483020      12.04528396       12
C        8.33570355       7.05134808       3.21198201       13
C       11.72757651       3.90408099      10.84483204       13
C        7.35147307       7.06819547       4.24937489       14
C       12.71180698       3.88723359       9.80743916       14
C        7.56267301       6.42465895       5.42171318       15
C       12.50060704       4.53077012       8.63510087       15
C        8.78053056       5.71021170       5.65083925       16
C       11.28274950       5.24521737       8.40597480       16
C        9.73819741       5.66717871       4.69216453       17
C       10.32508265       5.28825036       9.36464952       17
C        9.56638316       6.32703115       3.43829672       18
C       10.49689690       4.62839792      10.61851733       18
C       10.53896125       6.29982492       2.44869701       19
C        9.52431881       4.65560415      11.60811704       19
C       10.36852907       6.97654088       1.22434850       20
C        9.69475098       3.97888818      12.83246554       20
C        8.71898991       3.98403188      13.83612207       21
C       11.34429015       6.97139718       0.22069198       21
H       10.10513032       2.37297787       1.24965077       22
H        9.95814974       8.58245119      12.80716328       22
H        9.28331088       1.68317258       3.50155238       23
H       10.77996918       9.27225649      10.55526167       23
H        9.62264996       1.51824578       5.76188808       24
H       10.44063009       9.43718329       8.29492597       24
H       11.61967144       2.32769557       6.73743097       25
H        8.44360862       8.62773349       7.31938308       25
H        7.00201518       3.25008269       5.44701544       26
H       13.06126488       7.70534637       8.60979860       26
H        7.81567938       3.95183627       3.20354792       27
H       12.24760067       7.00359280      10.85326613       27
H        6.58964996       0.49966361       1.86674491       28
H       13.47363009      10.45576546      12.19006914       28
H       12.81207226       7.53705467       4.11302379       29
H        7.25120779       3.41837440       9.94379026       29
H       13.17146921       6.44789917       6.09784593       30
H        6.89181085       4.50752989       7.95896811       30
H        8.91894403       5.26512581       6.47878559       31
H       11.14433603       5.69030326       7.57802845       31
H       10.54081503       5.18600437       4.85803494       32
H        9.52246502       5.76942469       9.19877911       32
H       11.34015563       5.81230231       2.60051060       33
H        8.72312442       5.14312676      11.45630345       33
H       11.41074033       6.32728129      13.10376206       34
H        8.65253972       4.62814777       0.95305199       34
H        7.90533796       4.45650539      13.70539370       35
H       12.15794209       6.49892368       0.35142035       35
C       12.63848341      10.94426778       0.80686113        0
C        8.89703390      15.36835371      13.24995292        0
C       11.64656923      10.37270024       1.63902452        1
C        9.88894808      15.93992125      12.41778953        1
C       11.82524031      10.27161956       3.01378093        2
C        9.71027700      16.04100193      11.04303312        2
C       10.82923013       9.68576099       3.87686931        3
C       10.70628719      16.62686050      10.17994473        3
C       11.02720251       9.58855879       5.21226665        4
C       10.50831480      16.72406270       8.84454740        4
C       12.23465408      10.07117973       5.79703011        5
C        9.30086324      16.24144176       8.25978393        5
C       13.21361813      10.62227417       5.03515079        6
C        8.32189919      15.69034732       9.02166326        6
C       13.04980703      10.74753516       3.61260121        7
C        8.48571029      15.56508633      10.44421284        7
C        7.75043080      11.31282773       2.80292872        8
C       13.78508651      14.99979376      11.25388533        8
C        7.59400143      11.43224414       1.41130413        9
C       13.94151588      14.88037735      12.64550992        9
C       12.96036315      14.32307146      13.47626763       10
C        8.57515416      11.98955003       0.58054642       10
C        9.86055082      15.38428617       0.99241107       11
C       11.67496650      10.92833533      13.06440298       11
C        8.87618765      15.38919508       2.01153009       12
C       12.65932967      10.92342641      12.04528396       12
C        9.07182217      14.72994429       3.21198201       13
C       12.46369514      11.58267720      10.84483204       13
C        8.08759170      14.74679169       4.24937489       14
C       13.44792561      11.56582981       9.80743916       14
C        8.29879164      14.10325516       5.42171318       15
C       13.23672567      12.20936633       8.63510087       15
C        9.51664919      13.38880791       5.65083925       16
C       12.01886812      12.92381358       8.40597480       16
C       10.47431604      13.34577492       4.69216453       17
C       11.06120127      12.96684657       9.36464952       17
C       10.30250179      14.00562736       3.43829672       18
C       11.23301552      12.30699413      10.61851733       18
C       11.27507988      13.97842113       2.44869701       19
C       10.26043744      12.33420036      11.60811704       19
C       11.10464770      14.65513709       1.22434850       20
C       10.43086961      11.65748440      12.83246554       20
C        9.45510853      11.66262810      13.83612207       21
C       12.08040878      14.64999340       0.22069198       21
H       10.84124895      10.05157409       1.24965077       22
H       10.69426836      16.26104741      12.80716328       22
H       10.01942950       9.36176879       3.50155238       23
H       11.51608781      16.95085270      10.55526167       23
H       10.35876859       9.19684199       5.76188808       24
H       11.17674872      17.11577950       8.29492597       24
H       12.35579007      10.00629179       6.73743097       25
H        9.17972724      16.30632971       7.31938308       25
H        7.73813381      10.92867891       5.44701544       26
H       13.79738351      15.38394259       8.60979860       26
H        8.55179801      11.63043248       3.20354792       27
H       12.98371930      14.68218901      10.85326613       27
H        7.32576859       8.17825982       1.86674491       28
H       14.20974872      18.13436167      12.19006914       28
H       13.54819089      15.21565088       4.11302379       29
H        7.98732642      11.09697061       9.94379026       29
H       13.90758784      14.12649539       6.09784593       30
H        7.62792947      12.18612611       7.95896811       30
H        9.65506266      12.94372202       6.47878559       31
H       11.88045465      13.36889947       7.57802845       31
H       11.27693366      12.86460059       4.85803494       32
H       10.25858365      13.44802090       9.19877911       32
H       12.07627426      13.49089852       2.60051060       33
H        9.45924305      12.82172297      11.45630345       33
H       12.14685896      14.00587750      13.10376206       34
H        9.38865835      12.30674399       0.95305199       34
H        8.64145659      12.13510160      13.70539370       35
H       12.89406072      14.17751989       0.35142035       35
