180
Selected molecule pairs for bond type visualization
C 19.956000 33.437000 34.945000
C 18.964000 32.865000 35.777000
C 21.186000 33.925000 35.549000
C 19.776000 33.539000 33.557000
C 19.142000 32.764000 37.152000
H 18.158000 32.544000 35.388000
C 21.343000 33.805000 36.941000
C 22.168000 34.482000 34.719000
C 20.757000 34.096000 32.727000
H 18.963000 33.222000 33.185000
C 18.146000 32.178000 38.015000
C 20.367000 33.240000 37.751000
H 22.144000 34.123000 37.342000
H 22.981000 34.799000 35.091000
C 21.988000 34.584000 33.331000
C 20.601000 34.215000 31.335000
C 18.344000 32.081000 39.350000
H 17.337000 31.854000 37.640000
C 20.531000 33.115000 39.173000
C 22.980000 35.156000 32.499000
C 21.577000 34.781000 30.525000
H 19.800000 33.898000 30.934000
C 19.552000 32.564000 39.935000
H 17.676000 31.689000 39.900000
H 21.331000 33.421000 39.585000
H 23.785000 35.477000 32.888000
C 22.802000 35.257000 31.124000
C 21.413000 34.906000 29.103000
H 19.673000 32.499000 40.875000
C 23.798000 35.843000 30.261000
C 22.392000 35.457000 28.341000
H 20.613000 34.600000 28.691000
C 23.600000 35.940000 28.926000
H 24.607000 36.167000 30.636000
H 22.271000 35.522000 27.401000
H 24.268000 36.331000 28.376000
C 22.717000 30.198000 35.130000
C 21.733000 30.203000 36.150000
C 23.961000 29.469000 35.362000
C 22.546000 30.878000 33.917000
C 21.928000 29.544000 37.350000
H 20.918000 30.671000 36.005000
C 24.131000 28.792000 36.587000
C 24.937000 29.464000 34.359000
C 23.522000 30.873000 32.914000
H 21.733000 31.351000 33.787000
C 20.944000 29.561000 38.387000
C 23.159000 28.820000 37.576000
H 24.933000 28.305000 36.738000
H 25.750000 28.991000 34.489000
C 24.766000 30.144000 33.146000
C 23.352000 31.550000 31.689000
C 21.155000 28.917000 39.560000
H 20.129000 30.030000 38.251000
C 23.331000 28.160000 38.830000
C 25.751000 30.139000 32.126000
C 24.324000 31.523000 30.700000
H 22.550000 32.037000 31.537000
C 22.373000 28.203000 39.789000
H 20.489000 28.940000 40.236000
H 24.133000 27.679000 38.996000
H 26.565000 29.671000 32.271000
C 25.555000 30.798000 30.926000
C 24.152000 32.183000 29.446000
H 22.511000 27.758000 40.617000
C 26.539000 30.782000 29.889000
C 25.110000 32.139000 28.487000
H 23.350000 32.664000 29.280000
C 26.328000 31.425000 28.716000
H 27.354000 30.313000 30.025000
H 24.972000 32.585000 27.659000
H 26.994000 31.402000 28.040000
C 23.453000 37.877000 35.130000
C 22.469000 37.882000 36.150000
C 24.697000 37.148000 35.362000
C 23.282000 38.557000 33.917000
C 22.664000 37.222000 37.350000
H 21.654000 38.349000 36.005000
C 24.868000 36.471000 36.587000
C 25.673000 37.143000 34.359000
C 24.258000 38.552000 32.914000
H 22.469000 39.029000 33.787000
C 21.680000 37.239000 38.387000
C 23.895000 36.498000 37.576000
H 25.669000 35.983000 36.738000
H 26.487000 36.670000 34.489000
C 25.502000 37.823000 33.146000
C 24.088000 39.228000 31.689000
C 21.891000 36.596000 39.560000
H 20.865000 37.708000 38.251000
C 24.067000 35.838000 38.830000
C 26.487000 37.818000 32.126000
C 25.060000 39.201000 30.700000
H 23.287000 39.716000 31.537000
C 23.109000 35.881000 39.789000
H 21.225000 36.619000 40.236000
H 24.869000 35.357000 38.996000
H 27.301000 37.350000 32.271000
C 26.291000 38.477000 30.926000
C 24.889000 39.861000 29.446000
H 23.248000 35.436000 40.617000
C 27.275000 38.460000 29.889000
C 25.846000 39.818000 28.487000
H 24.086000 40.342000 29.280000
C 27.064000 39.104000 28.716000
H 28.090000 37.991000 30.025000
H 25.708000 40.263000 27.659000
H 27.731000 39.080000 28.040000
C 26.231000 33.437000 34.945000
C 25.239000 32.865000 35.777000
C 27.462000 33.925000 35.549000
C 26.052000 33.539000 33.557000
C 25.418000 32.764000 37.152000
H 24.434000 32.544000 35.388000
C 27.618000 33.805000 36.941000
C 28.443000 34.482000 34.719000
C 27.033000 34.096000 32.727000
H 25.238000 33.222000 33.185000
C 24.422000 32.178000 38.015000
C 26.642000 33.240000 37.751000
H 28.420000 34.123000 37.342000
H 29.256000 34.799000 35.091000
C 28.264000 34.584000 33.331000
C 26.876000 34.215000 31.335000
C 24.620000 32.081000 39.350000
H 23.612000 31.854000 37.640000
C 26.806000 33.115000 39.173000
C 29.255000 35.156000 32.499000
C 27.852000 34.781000 30.525000
H 26.075000 33.898000 30.934000
C 25.827000 32.564000 39.935000
H 23.951000 31.689000 39.900000
H 27.606000 33.421000 39.585000
H 30.061000 35.477000 32.888000
C 29.077000 35.257000 31.124000
C 27.688000 34.906000 29.103000
H 25.948000 32.499000 40.875000
C 30.073000 35.843000 30.261000
C 28.667000 35.457000 28.341000
H 26.889000 34.600000 28.691000
C 29.875000 35.940000 28.926000
H 30.883000 36.167000 30.636000
H 28.546000 35.522000 27.401000
H 30.543000 36.331000 28.376000
C 29.728000 37.877000 35.130000
C 28.744000 37.882000 36.150000
C 30.972000 37.148000 35.362000
C 29.558000 38.557000 33.917000
C 28.940000 37.222000 37.350000
H 27.930000 38.349000 36.005000
C 31.143000 36.471000 36.587000
C 31.948000 37.143000 34.359000
C 30.534000 38.552000 32.914000
H 28.744000 39.029000 33.787000
C 27.955000 37.239000 38.387000
C 30.170000 36.498000 37.576000
H 31.944000 35.983000 36.738000
H 32.762000 36.670000 34.489000
C 31.778000 37.823000 33.146000
C 30.363000 39.228000 31.689000
C 28.167000 36.596000 39.560000
H 27.141000 37.708000 38.251000
C 30.342000 35.838000 38.830000
C 32.762000 37.818000 32.126000
C 31.336000 39.201000 30.700000
H 29.562000 39.716000 31.537000
C 29.384000 35.881000 39.789000
H 27.500000 36.619000 40.236000
H 31.145000 35.357000 38.996000
H 33.576000 37.350000 32.271000
C 32.566000 38.477000 30.926000
C 31.164000 39.861000 29.446000
H 29.523000 35.436000 40.617000
C 33.551000 38.460000 29.889000
C 32.122000 39.818000 28.487000
H 30.361000 40.342000 29.280000
C 33.339000 39.104000 28.716000
H 34.365000 37.991000 30.025000
H 31.983000 40.263000 27.659000
H 34.006000 39.080000 28.040000
