   36
Geometry Step: 0
    C     10.43270000     29.07330000     63.24400000      3.97330424
    C      9.44840000     29.07820000     64.26310000      4.07615496
    C     11.67680000     28.34410000     63.47600000      3.96907570
    C     10.26210000     29.75340000     62.03090000      4.05978223
    C      9.64400000     28.41890000     65.46360000      3.94548670
    H      8.63410000     29.54580000     64.11830000      0.88200837
    C     11.84730000     27.66740000     64.70030000      4.07641167
    C     12.65260000     28.33900000     62.47230000      4.05978704
    C     11.23790000     29.74820000     61.02730000      3.96905650
    H      9.44850000     30.22580000     61.90020000      0.88300963
    C      8.65980000     28.43580000     66.50100000      4.08779065
    C     10.87470000     27.69460000     65.68990000      3.94489044
    H     12.64850000     27.17990000     64.85210000      0.88201010
    H     13.46620000     27.86650000     62.60300000      0.88302438
    C     12.48200000     29.01910000     61.25920000      3.97329200
    C     11.06750000     30.42490000     59.80290000      4.07642906
    C      8.87100000     27.79220000     67.67330000      4.05957659
    H      7.84510000     28.90460000     66.36460000      0.88115595
    C     11.04650000     27.03480000     66.94380000      4.08783538
    C     13.46640000     29.01420000     60.24010000      4.07616991
    C     12.04000000     30.39770000     58.81330000      3.94486491
    H     10.26630000     30.91250000     59.65110000      0.88202843
    C     10.08880000     27.07780000     67.90240000      4.05826540
    H      8.20450000     27.81550000     68.34950000      0.87589003
    H     11.84910000     26.55360000     67.10960000      0.88192003
    H     14.28070000     28.54650000     60.38490000      0.88200480
    C     13.27070000     29.67340000     59.03960000      3.94547099
    C     11.86820000     31.05760000     57.55940000      4.08784711
    H     10.22720000     26.63270000     68.73040000      0.87542661
    C     14.25500000     29.65660000     58.00220000      4.08779563
    C     12.82590000     31.01460000     56.60080000      4.05828290
    H     11.06560000     31.53880000     57.39360000      0.88191257
    C     14.04380000     30.30010000     56.82990000      4.05959253
    H     15.06970000     29.18770000     58.13860000      0.88116251
    H     12.68750000     31.45960000     55.77280000      0.87541300
    H     14.71030000     30.27690000     56.15380000      0.87587105
   36
Geometry Step: 1
    C     10.43831328     29.06920054     63.24795341      3.96987539
    C      9.48851686     29.05853459     64.26270377      4.05698373
    C     11.66892101     28.34744041     63.47614506      3.96805664
    C     10.29842266     29.73110145     62.03856329      4.04029981
    C      9.64731007     28.41432234     65.47014093      3.94742132
    H      8.59129557     29.57068670     64.11038872      0.90310605
    C     11.81206787     27.69063854     64.68964091      4.05689743
    C     12.61629497     28.36128112     62.46465633      4.04030379
    C     11.24578881     29.74488468     61.02710008      3.96804270
    H      9.40564598     30.25115299     61.89225197      0.90362756
    C      8.69928685     28.41642796     66.49979643      4.06894250
    C     10.86752441     27.69667112     65.69369145      3.94731821
    H     12.69098963     27.15441189     64.85998699      0.90286599
    H     13.50903026     27.84115919     62.61094189      0.90363091
    C     12.47640992     29.02318124     61.25526118      3.96987518
    C     11.10268035     30.40167277     59.81358045      4.05690889
    C      8.90917806     27.78492807     67.64753959      4.03612107
    H      7.80250582     28.92948316     66.35680929      0.90129734
    C     11.01348745     27.05746718     66.93004054      4.06897406
    C     13.42628329     29.03385206     60.24051435      4.05699566
    C     12.04719021     30.39563172     58.80949604      3.94731544
    H     10.22383512     30.93797629     59.64321851      0.90286722
    C     10.07265490     27.10276658     67.86530805      4.03578878
    H      8.16994485     27.81644526     68.38519177      0.89546452
    H     11.89132028     26.52865841     67.11769586      0.90166173
    H     14.32347906     28.52162652     60.39280773      0.90309750
    C     13.26741170     29.67798300     59.03304179      3.94741599
    C     11.90122400     31.03492428     57.57315770      4.06897764
    H     10.23396965     26.60967145     68.77354690      0.89529751
    C     14.21552587     29.67594881     58.00342517      4.06895512
    C     12.84207134     30.98960409     56.63792620      4.03578013
    H     11.02337967     31.56374160     57.38550525      0.90165636
    C     14.00555930     30.30739817     56.85567644      4.03611694
    H     15.11226952     29.16282937     58.14638788      0.90128805
    H     12.68072672     31.48263930     55.72962913      0.89530352
    H     14.74488468     30.27595714     56.11807893      0.89546932
   36
Geometry Step: 2
    C     10.45227685     29.06128108     63.25130977      3.96393100
    C      9.48614808     29.06150181     64.25861387      4.06251530
    C     11.65485742     28.35527854     63.47333280      3.96314890
    C     10.29418385     29.73273560     62.03886570      4.04600215
    C      9.65992366     28.40728353     65.47192827      3.94066698
    H      8.57343318     29.58155805     64.10637133      0.90238790
    C     11.81647885     27.68884463     64.68853151      4.06262573
    C     12.62053044     28.35964189     62.46436141      4.04599934
    C     11.25986092     29.73706011     61.02988369      3.96314721
    H      9.38743100     30.26229750     61.88802677      0.90288421
    C      8.69612563     28.42695925     66.47968690      4.07329835
    C     10.85469854     27.70424574     65.69179044      3.94042333
    H     12.70945384     27.14377597     64.86302427      0.90207150
    H     13.52724531     27.83001605     62.61516625      0.90288913
    C     12.46247169     29.03108733     61.25190666      3.96393344
    C     11.09826760     30.40346783     59.81468693      4.06262497
    C      8.90160418     27.78254725     67.66100725      4.04083543
    H      7.78496696     28.93998107     66.35318963      0.89938171
    C     11.02968144     27.05637128     66.91383256      4.07326142
    C     13.42862528     29.03088264     60.24461639      4.06251317
    C     12.06001744     30.38806182     58.81139503      3.94042865
    H     10.20536477     30.94861474     59.64018238      0.90207413
    C     10.07066571     27.09745393     67.87922608      4.04048062
    H      8.15681231     27.81651046     68.39946334      0.89321918
    H     11.90950944     26.51811797     67.12088376      0.89959354
    H     14.34133517     28.51076134     60.39682558      0.90238963
    C     13.25481865     29.68502252     59.03125029      3.94066870
    C     11.88502941     31.03600924     57.58938180      4.07326126
    H     10.23607776     26.60099543     68.79017102      0.89327100
    C     14.21866486     29.66541365     58.02354325      4.07329742
    C     12.84407559     30.99490967     56.62399613      4.04047709
    H     11.00519565     31.57427942     57.38231865      0.89958906
    C     14.01312885     30.30979124     56.84220437      4.04083228
    H     15.12980737     29.15233482     58.15000796      0.89937863
    H     12.67862163     31.49131327     55.71301109      0.89327402
    H     14.75801065     30.27589333     56.10380687      0.89322362
   36
Geometry Step: 3
    C     10.45234514     29.06247822     63.25071071      3.96335590
    C      9.47895848     29.06710172     64.25384431      4.06215755
    C     11.65651457     28.35426927     63.47216837      3.96298153
    C     10.28560199     29.73703645     62.03792710      4.04586992
    C      9.66146440     28.41024674     65.46423913      3.93937848
    H      8.55393805     29.59389203     64.10121934      0.90285002
    C     11.82544114     27.68458374     64.68748127      4.06239400
    C     12.62912031     28.35533288     62.46529700      4.04586723
    C     11.25821515     29.73807359     61.03103945      3.96298421
    H      9.36724158     30.27484224     61.88285336      0.90357291
    C      8.68670905     28.43383115     66.47403513      4.07267793
    C     10.85769874     27.70586852     65.68574789      3.93892110
    H     12.73027077     27.13214778     64.86605445      0.90272526
    H     13.54743754     27.81747180     62.62034078      0.90357563
    C     12.46240932     29.02988548     61.25251020      3.96335663
    C     11.08930459     30.40773560     59.81572260      4.06239287
    C      8.88690542     27.78776159     67.66567089      4.04309518
    H      7.76370041     28.95378047     66.34652095      0.90003961
    C     11.04186351     27.05036244     66.91239513      4.07277253
    C     13.43579932     29.02527408     60.24938683      4.06215373
    C     12.05703089     30.38643926     58.81743868      3.93892284
    H     10.18453626     30.96024667     59.63715370      0.90272602
    C     10.08053269     27.08839324     67.88832568      4.04261581
    H      8.13881810     27.81669067     68.41885696      0.89223986
    H     11.93330293     26.50534692     67.12285434      0.90002945
    H     14.36081907     28.49843786     60.40197898      0.90285341
    C     13.25327972     29.68206758     59.03894837      3.93937978
    C     11.87285735     31.04200436     57.59082489      4.07277176
    H     10.23909134     26.58914406     68.81268868      0.89232179
    C     14.22806212     29.65853591     58.02919080      4.07267489
    C     12.83420769     31.00396627     56.61488950      4.04261621
    H     10.98141125     31.58704526     57.38035080      0.90002764
    C     14.02783617     30.30458679     56.83753962      4.04309594
    H     15.15106977     29.13854235     58.15667701      0.90004045
    H     12.67561301     31.50316223     55.69050202      0.89232174
    H     14.77599217     30.27571476     56.08441507      0.89224019
   36
Geometry Step: 4
    C     10.44699130     29.06838238     63.24666543      3.96408009
    C      9.46196295     29.07950455     64.24482138      4.06166873
    C     11.66589772     28.34960936     63.46996702      3.96394820
    C     10.26763356     29.74695934     62.03494029      4.04619353
    C      9.65559783     28.41744995     65.45554610      3.94204213
    H      8.52883338     29.61048691     64.09338474      0.90148926
    C     11.84567075     27.67455343     64.68606849      4.06169991
    C     12.64710172     28.34539823     62.46827530      4.04619324
    C     11.24884411     29.74273926     61.03323503      3.96395084
    H      9.34101759     30.29134749     61.87554334      0.90298592
    C      8.66816440     28.44246051     66.47393608      4.07142963
    C     10.86833214     27.70331978     65.68074340      3.94165194
    H     12.75783625     27.11729596     64.86942151      0.90166157
    H     13.57367218     27.80096452     62.62765392      0.90298490
    C     12.46775974     29.02398092     61.25655869      3.96407898
    C     11.06907723     30.41777328     59.81712142      4.06169867
    C      8.87808389     27.78921726     67.67207395      4.03995195
    H      7.73491987     28.97368437     66.33485105      0.89998548
    C     11.05806247     27.03823469     66.91931540      4.07153420
    C     13.45278186     29.01285600     60.25840283      4.06166779
    C     12.04641101     30.38899265     58.82244873      3.94165061
    H     10.15695184     30.97510342     59.63378775      0.90166249
    C     10.08412033     27.08269646     67.89687048      4.03954026
    H      8.11294537     27.81720900     68.44623640      0.89508362
    H     11.96748782     26.48809179     67.12330507      0.89986117
    H     14.38590718     28.48185896     60.40981679      0.90149080
    C     13.25914735     29.67487448     59.04765918      3.94204243
    C     11.85667250     31.05411670     57.58390000      4.07153418
    H     10.24381621     26.57200659     68.84477307      0.89519251
    C     14.24658809     29.64989432     58.02927892      4.07142897
    C     12.83061978     31.00965241     56.60634185      4.03953993
    H     10.94724485     31.60428833     57.37990659      0.89986094
    C     14.03666285     30.30314699     56.83114250      4.03995282
    H     15.17983944     29.11865197     58.16834750      0.89998738
    H     12.67089496     31.52029952     55.65842651      0.89519214
    H     14.80184947     30.27519822     56.05703327      0.89508276
   36
Geometry Step: 5
    C     10.44288502     29.07197886     63.24413270      3.96489544
    C      9.45351431     29.08524241     64.24151875      4.06133526
    C     11.67160647     28.34676644     63.46930344      3.96460246
    C     10.25798341     29.75278240     62.03286432      4.04622063
    C      9.64915410     28.42053851     65.45594804      3.94437935
    H      8.51967190     29.61729524     64.08919065      0.90071009
    C     11.85554854     27.66932257     64.68601563      4.06140466
    C     12.65675472     28.33957193     62.47034603      4.04622102
    C     11.24313516     29.74558512     61.03390123      3.96460339
    H      9.33176301     30.29732489     61.87248879      0.90179955
    C      8.66039152     28.44353067     66.47940432      4.06959601
    C     10.87405266     27.69942799     65.68325998      3.94400723
    H     12.76865353     27.11203010     64.86995052      0.90079591
    H     13.58293681     27.79498415     62.63071032      0.90179862
    C     12.47186316     29.02038553     61.25908775      3.96489345
    C     11.05919739     30.42300825     59.81717554      4.06140435
    C      8.87371641     27.78981741     67.67543120      4.03902291
    H      7.72513990     28.98133527     66.32895623      0.90085514
    C     11.06118787     27.03300328     66.92666088      4.06972917
    C     13.46122752     29.00711063     60.26170202      4.06133586
    C     12.04069259     30.39289110     58.81993409      3.94400646
    H     10.14612816     30.98036877     59.63325866      0.90079658
    C     10.08561459     27.07979898     67.90142813      4.03867913
    H      8.10634356     27.81715477     68.45373988      0.89556412
    H     11.98044948     26.48227068     67.12187704      0.90079619
    H     14.39506441     28.47505578     60.41401353      0.90071002
    C     13.26559209     29.67179012     59.04725960      3.94437947
    C     11.85355102     31.05934277     57.57655007      4.06972917
    H     10.24476147     26.56747030     68.85346091      0.89560701
    C     14.25435664     29.64881769     58.02380792      4.06959664
    C     12.82912399     31.01254626     56.60178328      4.03867903
    H     10.93429374     31.61010147     57.38133841      0.90079599
    C     14.04103337     30.30255065     56.82779151      4.03902326
    H     15.18961290     29.11100826     58.17424245      0.90085594
    H     12.66995303     31.52483791     55.64974060      0.89560650
    H     14.80844550     30.27525285     56.04952553      0.89556401
   36
Geometry Step: 6
    C     10.44004616     29.07391879     63.24294935      3.96569358
    C      9.44952710     29.08694546     64.24235344      4.06085502
    C     11.67459226     28.34509999     63.46958612      3.96527580
    C     10.25329378     29.75588513     62.03167484      4.04600876
    C      9.64559219     28.42107273     65.45857360      3.94559855
    H      8.51601491     29.62081342     64.08609856      0.90074275
    C     11.85888764     27.66658233     64.68793398      4.06095142
    C     12.66144375     28.33646805     62.47153374      4.04600902
    C     11.24014763     29.74725305     61.03362168      3.96527519
    H      9.32778524     30.30002048     61.87077294      0.90124117
    C      8.65568404     28.44315145     66.48502020      4.06928473
    C     10.87593353     27.69698532     65.68650043      3.94529429
    H     12.77396733     27.10999687     64.86939421      0.90070061
    H     13.58692229     27.79228660     62.63242701      0.90124106
    C     12.47469826     29.01844616     61.26026760      3.96569216
    C     11.05585662     30.42575217     59.81526123      4.06095216
    C      8.87312637     27.78847603     67.67885926      4.03831220
    H      7.72307169     28.98390198     66.32564078      0.90067744
    C     11.06155844     27.02975417     66.93314974      4.06942118
    C     13.46521488     29.00540490     60.26086221      4.06085636
    C     12.03881088     30.39533915     58.81669685      3.94529393
    H     10.14081177     30.98239970     59.63381456      0.90070099
    C     10.08385939     27.07915020     67.90454198      4.03796657
    H      8.10636994     27.81683882     68.45455508      0.89560215
    H     11.98457553     26.48110847     67.11988286      0.90069034
    H     14.39872228     28.47153817     60.41710835      0.90074197
    C     13.26915173     29.67125788     59.04463358      3.94559788
    C     11.85318133     31.06258968     57.57005818      4.06942181
    H     10.24430918     26.56723557     68.85426480      0.89568353
    C     14.25906430     29.64919386     58.01819177      4.06928671
    C     12.83087920     31.01319339     56.59866923      4.03796611
    H     10.93017330     31.61125825     57.38333466      0.90068969
    C     14.04162507     30.30389236     56.82436659      4.03831214
    H     15.19167805     29.10844521     58.17755830      0.90067672
    H     12.67040751     31.52507557     55.64893604      0.89568327
    H     14.80841635     30.27556865     56.04870622      0.89560273
   36
Geometry Step: 7
    C     10.43812745     29.07449337     63.24332879      3.96616513
    C      9.44728869     29.08707440     64.24487327      4.06058916
    C     11.67542385     28.34413046     63.47084557      3.96565759
    C     10.25064317     29.75789826     62.03083428      4.04585221
    C      9.64285759     28.42014417     65.46336150      3.94617649
    H      8.51441335     29.62334400     64.08305872      0.90098947
    C     11.85959605     27.66480547     64.69074675      4.06072493
    C     12.66409317     28.33445394     62.47237377      4.04585219
    C     11.23931397     29.74822388     61.03236481      3.96565624
    H      9.32507976     30.30198484     61.86920716      0.90089460
    C      8.65329358     28.44185324     66.49020312      4.06905247
    C     10.87564467     27.69474728     65.69148407      3.94589740
    H     12.77759576     27.10915132     64.86829133      0.90083855
    H     13.58963390     27.79032173     62.63399289      0.90089524
    C     12.47661451     29.01787033     61.25988477      3.96616450
    C     11.05514735     30.42753347     59.81245361      4.06072589
    C      8.87312853     27.78686209     67.68217154      4.03815772
    H      7.72369754     28.98468473     66.32323206      0.90061590
    C     11.06032958     27.02795181     66.93839418      4.06921227
    C     13.46745289     29.00527460     60.25833841      4.06059027
    C     12.03909730     30.39758304     58.81171698      3.94589750
    H     10.13718103     30.98324197     59.63491683      0.90083884
    C     10.08167551     27.07878418     67.90740397      4.03783201
    H      8.10871393     27.81615274     68.45367657      0.89529184
    H     11.98557476     26.48156709     67.11773549      0.90066110
    H     14.40032675     28.46900649     60.42015115      0.90098890
    C     13.27188351     29.67218757     59.03984335      3.94617544
    C     11.85441068     31.06438990     57.56481265      4.06921302
    H     10.24296494     26.56844921     68.85281878      0.89539095
    C     14.26145459     29.65049151     58.01300931      4.06905436
    C     12.83306407     31.01355864     56.59580653      4.03783171
    H     10.92917700     31.61079510     57.38548312      0.90066051
    C     14.04162474     30.30550513     56.82105543      4.03815751
    H     15.19105151     29.10766432     58.17996809      0.90061470
    H     12.67175417     31.52386545     55.65038078      0.89539073
    H     14.80607007     30.27625427     56.04958031      0.89529267
   36
Geometry Step: 8
    C     10.43720093     29.07416940     63.24460041      3.96638786
    C      9.44666408     29.08619063     64.24783325      4.06045521
    C     11.67483008     28.34371342     63.47241733      3.96589940
    C     10.25036759     29.75837527     62.03060899      4.04556592
    C      9.64198560     28.41868125     65.46727062      3.94598443
    H      8.51434886     29.62471410     64.08085745      0.90130402
    C     11.85841202     27.66408572     64.69351311      4.06060403
    C     12.66436822     28.33397582     62.47259930      4.04556568
    C     11.23990743     29.74864153     61.03079380      3.96589801
    H      9.32339896     30.30331323     61.86793813      0.90110006
    C      8.65270474     28.44081346     66.49294728      4.06914876
    C     10.87405616     27.69371379     65.69520706      3.94574307
    H     12.77942485     27.10916831     64.86723407      0.90111949
    H     13.59131736     27.78899462     62.63526142      0.90110088
    C     12.47754002     29.01819164     61.25861178      3.96638787
    C     11.05633116     30.42825754     59.80969115      4.06060478
    C      8.87330286     27.78562879     67.68445819      4.03825123
    H      7.72525434     28.98441169     66.32208908      0.90047744
    C     11.05912870     27.02733637     66.94106209      4.06929847
    C     13.46807697     29.00615742     60.25537655      4.06045573
    C     12.04068459     30.39862046     58.80799672      3.94574340
    H     10.13534939     30.98322216     59.63597367      0.90111956
    C     10.08011405     27.07855357     67.90929427      4.03792463
    H      8.11062339     27.81530352     68.45361109      0.89504143
    H     11.98489826     26.48251385     67.11634777      0.90052484
    H     14.40039335     28.46763538     60.42235452      0.90130381
    C     13.27275304     29.67365096     59.03593283      3.94598336
    C     11.85561205     31.06500385     57.56214501      4.06929909
    H     10.24145208     26.56938740     68.85216838      0.89516956
    C     14.26204297     29.65153207     58.01026570      4.06915018
    C     12.83462712     31.01378882     56.59391552      4.03792428
    H     10.92985378     31.60984551     57.38687086      0.90052452
    C     14.04145121     30.30673770     56.81876726      4.03825115
    H     15.18949539     29.10793787     58.18111256      0.90047638
    H     12.67326929     31.52293005     55.65103047      0.89516945
    H     14.80415900     30.27710283     56.04964227      0.89504201
   36
Geometry Step: 9
    C     10.43677890     29.07349068     63.24624740      3.96645901
    C      9.44666741     29.08518173     64.25037037      4.06042870
    C     11.67370930     28.34350289     63.47401509      3.96602886
    C     10.25097809     29.75823768     62.03060774      4.04532625
    C      9.64190870     28.41733700     65.47006239      3.94553973
    H      8.51507290     29.62544454     64.07925686      0.90151673
    C     11.85684035     27.66384032     64.69580548      4.06057519
    C     12.66375783     28.33411198     62.47260094      4.04532600
    C     11.24102908     29.74885216     61.02919597      3.96602790
    H      9.32241724     30.30424976     61.86677208      0.90144320
    C      8.65294757     28.43998136     66.49434937      4.06923488
    C     10.87231608     27.69326819     65.69780195      3.94532310
    H     12.78021371     27.10965729     64.86635185      0.90134462
    H     13.59229995     27.78806052     62.63642672      0.90144380
    C     12.47796207     29.01886698     61.25696425      3.96645923
    C     11.05790333     30.42850722     59.80740137      4.06057553
    C      8.87309811     27.78491783     67.68599665      4.03839570
    H      7.72668488     28.98389970     66.32159650      0.90044372
    C     11.05813098     27.02725284     66.94230978      4.06938411
    C     13.46807281     29.00716496     60.25283925      4.06042871
    C     12.04242442     30.39906888     58.80540379      3.94532351
    H     10.13455718     30.98273081     59.63685573      0.90134454
    C     10.07936070     27.07810640     67.91076536      4.03810666
    H      8.11145186     27.81428931     68.45508588      0.89493644
    H     11.98395653     26.48330337     67.11559127      0.90046372
    H     14.39967017     28.46690455     60.42395653      0.90151682
    C     13.27282862     29.67499531     59.03314077      3.94553898
    C     11.85661050     31.06508639     57.56089792      4.06938447
    H     10.23987810     26.56959456     68.85316328      0.89504926
    C     14.26179928     29.65236557     58.00886357      4.06923563
    C     12.83538177     31.01423585     56.59244365      4.03810638
    H     10.93079459     31.60905381     57.38762679      0.90046382
    C     14.04165627     30.30744809     56.81722658      4.03839572
    H     15.18806569     29.10845006     58.18160697      0.90044322
    H     12.67484570     31.52272517     55.65003567      0.89504913
    H     14.80332921     30.27811622     56.04816416      0.89493672
   36
Geometry Step: 10
    C     10.43649740     29.07295313     63.24763259      3.96650625
    C      9.44685142     29.08439081     64.25224081      4.06040913
    C     11.67277773     28.34328871     63.47533412      3.96615546
    C     10.25184122     29.75788404     62.03067739      4.04511224
    C      9.64198282     28.41640387     65.47179529      3.94515168
    H      8.51623514     29.62581533     64.07809496      0.90162540
    C     11.85550092     27.66379298     64.69751989      4.06053884
    C     12.66289508     28.33446403     62.47253141      4.04511205
    C     11.24196212     29.74906613     61.02787668      3.96615494
    H      9.32211832     30.30483280     61.86562654      0.90180327
    C      8.65327825     28.43932955     66.49524206      4.06926338
    C     10.87103695     27.69303079     65.69943814      3.94497715
    H     12.78033728     27.11045121     64.86568442      0.90148174
    H     13.59259936     27.78748046     62.63757154      0.90180353
    C     12.47824361     29.01940095     61.25557896      3.96650645
    C     11.05924362     30.42855883     59.80568892      4.06053888
    C      8.87251910     27.78442450     67.68743598      4.03847942
    H      7.72773952     28.98342255     66.32143296      0.90045345
    C     11.05735503     27.02720652     66.94315855      4.06939231
    C     13.46788809     29.00795406     60.25096912      4.06040887
    C     12.04370429     30.39930841     58.80376897      3.94497756
    H     10.13442954     30.98193463     59.63752332      0.90148151
    C     10.07900985     27.07742364     67.91228489      4.03822529
    H      8.11135621     27.81310575     68.45794931      0.89493480
    H     11.98322282     26.48377894     67.11528809      0.90045358
    H     14.39850774     28.46653388     60.42511944      0.90162556
    C     13.27275415     29.67592856     59.03140857      3.94515124
    C     11.85738722     31.06513234     57.56004949      4.06939245
    H     10.23821941     26.56912874     68.85567666      0.89503663
    C     14.26146792     29.65301856     58.00797066      4.06926371
    C     12.83573340     31.01491861     56.59092352      4.03822500
    H     10.93152707     31.60857606     57.38792905      0.90045395
    C     14.04223526     30.30794103     56.81578490      4.03847953
    H     15.18701129     29.10892776     58.18177256      0.90045341
    H     12.67650711     31.52319313     55.64752298      0.89503649
    H     14.80342358     30.27929872     56.04529721      0.89493481
   36
Geometry Step: 11
    C     10.43621980     29.07253869     63.24890968      3.96655421
    C      9.44715005     29.08370690     64.25390600      4.06038349
    C     11.67194475     28.34301546     63.47658973      3.96629734
    C     10.25284944     29.75748080     62.03068820      4.04493552
    C      9.64186178     28.41560462     65.47335216      3.94489091
    H      8.51807260     29.62609545     64.07691362      0.90166941
    C     11.85422059     27.66384205     64.69911673      4.06048761
    C     12.66188729     28.33486510     62.47252039      4.04493550
    C     11.24279688     29.74933897     61.02662102      3.96629727
    H      9.32257688     30.30517313     61.86409569      0.90212587
    C      8.65349816     28.43844052     66.49667534      4.06918348
    C     10.86997278     27.69265519     65.70104010      3.94476251
    H     12.77999715     27.11175946     64.86504584      0.90155780
    H     13.59214209     27.78714428     62.63910163      0.90212575
    C     12.47852088     29.01981084     61.25430143      3.96655424
    C     11.06052539     30.42851528     59.80409440      4.06048740
    C      8.87142141     27.78376804     67.68966779      4.03847989
    H      7.72875504     28.98288259     66.32142281      0.90052742
    C     11.05636519     27.02696278     66.94454275      4.06929660
    C     13.46758859     29.00863521     60.24930433      4.06038311
    C     12.04476989     30.39968665     58.80216854      3.94476289
    H     10.13476381     30.98062313     59.63816251      0.90155750
    C     10.07857158     27.07627181     67.91475347      4.03829432
    H      8.11069148     27.81132283     68.46283121      0.89498967
    H     11.98253865     26.48409474     67.11524596      0.90050445
    H     14.39666952     28.46625408     60.42630192      0.90166950
    C     13.27287568     29.67672828     59.02985314      3.94489086
    C     11.85837797     31.06537620     57.55866546      4.06929655
    H     10.23581624     26.56805802     68.86016231      0.89505965
    C     14.26124740     29.65390885     58.00653686      4.06918343
    C     12.83617222     31.01607055     56.58845431      4.03829409
    H     10.93220961     31.60825694     57.38796968      0.90050499
    C     14.04333288     30.30859672     56.81355059      4.03848001
    H     15.18599534     29.10946900     58.18178564      0.90052780
    H     12.67891429     31.52426691     55.64303856      0.89505946
    H     14.80408642     30.28107986     56.04041024      0.89498948
   36
Geometry Step: 12
    C     10.43603890     29.07240827     63.24966282      3.96657940
    C      9.44762775     29.08322057     64.25512418      4.06034426
    C     11.67136880     28.34277860     63.47745934      3.96642500
    C     10.25386218     29.75711930     62.03058029      4.04484955
    C      9.64136699     28.41497856     65.47483549      3.94488064
    H      8.52047210     29.62632671     64.07584329      0.90167393
    C     11.85311956     27.66405717     64.70035507      4.06040976
    C     12.66087473     28.33522404     62.47262765      4.04484967
    C     11.24337433     29.74957538     61.02575170      3.96642524
    H      9.32411899     30.30508915     61.86221408      0.90230602
    C      8.65342056     28.43721338     66.49905190      4.06899566
    C     10.86925739     27.69203320     65.70271123      3.94481904
    H     12.77919313     27.11356072     64.86458849      0.90158584
    H     13.59060285     27.78723330     62.64098266      0.90230563
    C     12.47870050     29.01993621     61.25354725      3.96657927
    C     11.06162825     30.42830646     59.80285890      4.06040943
    C      8.86988308     27.78271098     67.69310993      4.03838137
    H      7.72965519     28.98226590     66.32167565      0.90065438
    C     11.05500990     27.02637882     66.94690071      4.06907404
    C     13.46711004     29.00911819     60.24808597      4.06034394
    C     12.04548722     30.40031193     58.80049920      3.94481938
    H     10.13556078     30.97881729     59.63862115      0.90158552
    C     10.07773271     27.07467420     67.91843915      4.03827314
    H      8.10975069     27.80890513     68.46947925      0.89503603
    H     11.98190513     26.48419014     67.11558629      0.90062381
    H     14.39426906     28.46602294     60.42737361      0.90167382
    C     13.27337169     29.67735562     59.02837167      3.94488087
    C     11.85973426     31.06596090     57.55630744      4.06907388
    H     10.23258214     26.56652777     68.86633873      0.89508839
    C     14.26132472     29.65513710     58.00415982      4.06899542
    C     12.83701146     31.01766835     56.58476822      4.03827295
    H     10.93284123     31.60815693     57.38762723      0.90062436
    C     14.04487109     30.30965259     56.81010603      4.03838143
    H     15.18509397     29.11008784     58.18153659      0.90065495
    H     12.68215368     31.52580143     55.63686376      0.89508821
    H     14.80502447     30.28349485     56.03375548      0.89503574
   36
Geometry Step: 13
    C     10.43614169     29.07261819     63.24948205      3.96653636
    C      9.44825019     29.08305975     64.25546247      4.06030412
    C     11.67119285     28.34279678     63.47748350      3.96644643
    C     10.25453183     29.75694306     62.03033872      4.04492352
    C      9.64062967     28.41465882     65.47593967      3.94515648
    H      8.52249615     29.62649000     64.07538486      0.90168564
    C     11.85248039     27.66446508     64.70075704      4.06033912
    C     12.66020476     28.33539834     62.47286832      4.04492368
    C     11.24355049     29.74955693     61.02572805      3.96644671
    H      9.32639594     30.30451406     61.86063180      0.90222199
    C      8.65304235     28.43592808     66.50187410      4.06875494
    C     10.86904842     27.69133093     65.70408642      3.94513941
    H     12.77823261     27.11521672     64.86462688      0.90159719
    H     13.58832988     27.78781255     62.64256491      0.90222162
    C     12.47859584     29.01972281     61.25372636      3.96653626
    C     11.06226884     30.42790293     59.80245930      4.06033884
    C      8.86847088     27.78148128     67.69681396      4.03823413
    H      7.73008723     28.98169650     66.32233552      0.90080575
    C     11.05360350     27.02560871     66.94964584      4.06881120
    C     13.46648696     29.00927658     60.24774682      4.06030390
    C     12.04569759     30.40101724     58.79912551      3.94513969
    H     10.13651611     30.97715657     59.63858453      0.90159694
    C     10.07657333     27.07316130     67.92230586      4.03820124
    H      8.10914571     27.80662215     68.47541847      0.89501449
    H     11.98140275     26.48399574     67.11640475      0.90077589
    H     14.39224453     28.46585909     60.42783311      0.90168540
    C     13.27411046     29.67767749     59.02726880      3.94515682
    C     11.86114131     31.06673216     57.55356229      4.06881104
    H     10.22950380     26.56521275     68.87182787      0.89505237
    C     14.26170310     29.65642307     58.00133737      4.06875464
    C     12.83817112     31.01918154     56.58090148      4.03820113
    H     10.93334200     31.60834691     57.38680662      0.90077630
    C     14.04628328     30.31088086     56.80640072      4.03823409
    H     15.18466057     29.11065947     58.18088011      0.90080622
    H     12.68523680     31.52712072     55.63137598      0.89505224
    H     14.80562640     30.28577478     56.02781033      0.89501424
   36
Geometry Step: 14
    C     10.43643897     29.07293802     63.24875571      3.96644260
    C      9.44875205     29.08312344     64.25516968      4.06027770
    C     11.67126503     28.34306721     63.47693505      3.96636674
    C     10.25472269     29.75693352     62.03011652      4.04506538
    C      9.64009188     28.41459826     65.47645850      3.94545666
    H      8.52317635     29.62659546     64.07571473      0.90174073
    C     11.85229848     27.66488810     64.70048541      4.06029865
    C     12.66001331     28.33540738     62.47308986      4.04506544
    C     11.24347734     29.74928645     61.02627671      3.96636684
    H      9.32809472     30.30388404     61.85998025      0.90200693
    C      8.65263791     28.43515242     66.50376636      4.06861573
    C     10.86914466     27.69091050     65.70477197      3.94545878
    H     12.77767582     27.11596201     64.86515368      0.90163708
    H     13.58663410     27.78844428     62.64321695      0.90200681
    C     12.47829712     29.01940240     61.25445135      3.96644270
    C     11.06245101     30.42748032     59.80273173      4.06029848
    C      8.86784261     27.78062943     67.69907874      4.03815834
    H      7.72991745     28.98131753     66.32327756      0.90089462
    C     11.05272867     27.02505038     66.95147079      4.06865412
    C     13.46598495     29.00921257     60.24803851      4.06027751
    C     12.04560155     30.40143919     58.79844059      3.94545902
    H     10.13707195     30.97640843     59.63805919      0.90163689
    C     10.07566377     27.07240546     67.92454076      4.03815151
    H      8.10923063     27.80545639     68.47798010      0.89492638
    H     11.98106825     26.48363170     67.11745229      0.90087499
    H     14.39156449     28.46575253     60.42750353      0.90174052
    C     13.27464904     29.67774018     59.02675015      3.94545691
    C     11.86201628     31.06729145     57.55173743      4.06865402
    H     10.22788986     26.56473829     68.87412622      0.89497322
    C     14.26210797     29.65719884     57.99944533      4.06861547
    C     12.83908093     31.01993769     56.57866695      4.03815146
    H     10.93367571     31.60870872     57.38575777      0.90087526
    C     14.04691158     30.31173185     56.80413602      4.03815827
    H     15.18482983     29.11103957     58.17993962      0.90089486
    H     12.68685294     31.52759761     55.62907820      0.89497319
    H     14.80553927     30.28693830     56.02524633      0.89492618
   36
Geometry Step: 15
    C     10.43666305     29.07313976     63.24823576      3.96635617
    C      9.44900079     29.08319740     64.25493693      4.06026761
    C     11.67128888     28.34336653     63.47650675      3.96627444
    C     10.25473123     29.75694937     62.02997226      4.04516297
    C      9.63983729     28.41457396     65.47674053      3.94561026
    H      8.52300080     29.62670144     64.07638708      0.90180520
    C     11.85223359     27.66518063     64.70024313      4.06028703
    C     12.66000435     28.33539177     62.47323376      4.04516292
    C     11.24345247     29.74898699     61.02670484      3.96627437
    H      9.32885479     30.30353683     61.85986370      0.90185288
    C      8.65235990     28.43481559     66.50468227      4.06857961
    C     10.86917927     27.69074824     65.70512610      3.94560489
    H     12.77751138     27.11608642     64.86584382      0.90169146
    H     13.58587557     27.78879196     62.64333412      0.90185296
    C     12.47807244     29.01920147     61.25497054      3.96635646
    C     11.06251548     30.42718596     59.80297365      4.06028695
    C      8.86776237     27.78020172     67.69998634      4.03814799
    H      7.72946520     28.98103770     66.32434154      0.90092034
    C     11.05235599     27.02474496     66.95231979      4.06861800
    C     13.46573628     29.00913950     60.24827055      4.06026739
    C     12.04556650     30.40160196     58.79808649      3.94560509
    H     10.13723768     30.97628273     59.63737006      0.90169131
    C     10.07515009     27.07218205     67.92537658      4.03814942
    H      8.10959651     27.80507052     68.47840943      0.89486240
    H     11.98076908     26.48324229     67.11854632      0.90090091
    H     14.39174026     28.46564544     60.42683089      0.90180511
    C     13.27490384     29.67776620     59.02646782      3.94561041
    C     11.86238887     31.06759745     57.55088861      4.06861795
    H     10.22732281     26.56474328     68.87441955      0.89490849
    C     14.26238633     29.65753570     57.99852977      4.06857936
    C     12.83959494     31.02016144     56.57783157      4.03814942
    H     10.93397455     31.60909748     57.38466304      0.90090113
    C     14.04699176     30.31215926     56.80322905      4.03814792
    H     15.18528233     29.11131961     58.17887602      0.90092043
    H     12.68742048     31.52759365     55.62878509      0.89490852
    H     14.80517195     30.28732261     56.02481687      0.89486225
   36
Geometry Step: 16
    C     10.43677396     29.07330279     63.24793597      3.96627630
    C      9.44911657     29.08323824     64.25498069      4.06025876
    C     11.67120219     28.34369057     63.47630460      3.96619096
    C     10.25477950     29.75691713     62.02982606      4.04521903
    C      9.63959282     28.41448562     65.47718355      3.94567416
    H      8.52252098     29.62687634     64.07743937      0.90187731
    C     11.85206738     27.66546453     64.70027175      4.06027358
    C     12.65995581     28.33542449     62.47337958      4.04521887
    C     11.24353815     29.74866244     61.02690644      3.96619075
    H      9.32931898     30.30333198     61.85977502      0.90175605
    C      8.65205753     28.43453190     66.50548748      4.06858150
    C     10.86907375     27.69061841     65.70562565      3.94566602
    H     12.77742790     27.11610676     64.86686360      0.90176228
    H     13.58541261     27.78899752     62.64342365      0.90175632
    C     12.47796132     29.01903964     61.25526974      3.96627676
    C     11.06268090     30.42689886     59.80294404      4.06027357
    C      8.86777632     27.77981389     67.70068902      4.03817957
    H      7.72873201     28.98060377     66.32603287      0.90092129
    C     11.05204111     27.02442246     66.95308159      4.06860978
    C     13.46562072     29.00910023     60.24822620      4.06025849
    C     12.04567141     30.40173220     58.79758671      3.94566618
    H     10.13732323     30.97626118     59.63635146      0.90176215
    C     10.07471210     27.07199405     67.92598311      4.03818230
    H      8.11006200     27.80473014     68.47857867      0.89481159
    H     11.98026855     26.48266265     67.12023124      0.90090140
    H     14.39222002     28.46546913     60.42577789      0.90187738
    C     13.27514848     29.67785669     59.02602453      3.94567420
    C     11.86270361     31.06792066     57.55012700      4.06860975
    H     10.22681670     26.56479023     68.87443448      0.89485808
    C     14.26268910     29.65781958     57.99772514      4.06858125
    C     12.84003337     31.02035012     56.57722568      4.03818233
    H     10.93447466     31.60967670     57.38297723      0.90090158
    C     14.04697758     30.31254697     56.80252719      4.03817955
    H     15.18601620     29.11175352     58.17718493      0.90092128
    H     12.68792688     31.52754773     55.62877056      0.89485815
    H     14.80470462     30.28766077     56.02464804      0.89481146
   36
Geometry Step: 17
    C     10.43667804     29.07351630     63.24791670      3.96618928
    C      9.44905277     29.08326949     64.25556744      4.06024474
    C     11.67092666     28.34413633     63.47646328      3.96610944
    C     10.25496507     29.75678708     62.02957498      4.04523667
    C      9.63912848     28.41425234     65.47819087      3.94567022
    H      8.52164866     29.62723939     64.07955219      0.90196195
    C     11.85165222     27.66586355     64.70087012      4.06024734
    C     12.65977010     28.33555527     62.47363001      4.04523638
    C     11.24381248     29.74821512     61.02674652      3.96610909
    H      9.32977641     30.30321318     61.85946389      0.90170385
    C      8.65149045     28.43405643     66.50685419      4.06860613
    C     10.86870594     27.69037891     65.70674633      3.94565659
    H     12.77725639     27.11623273     64.86888407      0.90185983
    H     13.58495689     27.78911841     62.64373632      0.90170432
    C     12.47805742     29.01882794     61.25528831      3.96618991
    C     11.06309456     30.42649371     59.80234345      4.06024744
    C      8.86773525     27.77918985     67.70180294      4.03825087
    H      7.72724390     28.97964990     66.32961438      0.90089845
    C     11.05155871     27.02380746     66.95438382      4.06862240
    C     13.46568499     29.00907186     60.24763889      4.06024445
    C     12.04603843     30.40197240     58.79646542      3.94565663
    H     10.13749790     30.97613307     59.63433313      0.90185975
    C     10.07406772     27.07156326     67.92699640      4.03826953
    H      8.11071245     27.80400395     68.47931077      0.89478865
    H     11.97916269     26.48146477     67.12376380      0.90086668
    H     14.39309150     28.46510366     60.42366337      0.90196223
    C     13.27561331     29.67809388     59.02501722      3.94567013
    C     11.86318576     31.06853708     57.54882500      4.06862238
    H     10.22579041     26.56467540     68.87486201      0.89481725
    C     14.26325695     29.65829572     57.99635956      4.06860588
    C     12.84067859     31.02078253     56.57621357      4.03826962
    H     10.93557955     31.61087376     57.37944279      0.90086679
    C     14.04701804     30.31317091     56.80141467      4.03825091
    H     15.18750570     29.11270737     58.17360401      0.90089831
    H     12.68895394     31.52766463     55.62834415      0.89481735
    H     14.80405056     30.28838223     56.02391640      0.89478857
   36
Geometry Step: 18
    C     10.43615571     29.07375857     63.24849833      3.96615229
    C      9.44860599     29.08330967     64.25698663      4.06022761
    C     11.67047963     28.34453854     63.47732229      3.96609921
    C     10.25531627     29.75653269     62.02924517      4.04516625
    C      9.63837175     28.41388256     65.47983273      3.94555024
    H      8.52057573     29.62777104     64.08274403      0.90200021
    C     11.85099638     27.66627604     64.70236756      4.06020394
    C     12.65941920     28.33581039     62.47395902      4.04516590
    C     11.24425866     29.74780989     61.02588555      3.96609880
    H      9.33008187     30.30330388     61.85878622      0.90176622
    C      8.65061989     28.43341786     66.50875730      4.06866108
    C     10.86805057     27.68999958     65.70855825      3.94554680
    H     12.77688788     27.11663595     64.87189256      0.90193314
    H     13.58465331     27.78903179     62.64441610      0.90176679
    C     12.47858066     29.01858735     61.25470622      3.96615292
    C     11.06374846     30.42607289     59.80084266      4.06020417
    C      8.86749394     27.77835793     67.70335937      4.03835639
    H      7.72500760     28.97810901     66.33520598      0.90083417
    C     11.05093385     27.02287325     66.95625738      4.06864597
    C     13.46613262     29.00903554     60.24621955      4.06022740
    C     12.04669330     30.40235261     58.79465246      3.94554668
    H     10.13786937     30.97572689     59.63132746      0.90193316
    C     10.07331389     27.07078166     67.92846363      4.03839921
    H      8.11128153     27.80277971     68.48113711      0.89483238
    H     11.97740340     26.47960765     67.12923669      0.90078804
    H     14.39416232     28.46456891     60.42046866      0.90200065
    C     13.27637124     29.67846888     59.02337614      3.94555000
    C     11.86381026     31.06947346     57.54695154      4.06864597
    H     10.22413769     26.56416215     68.87623820      0.89483659
    C     14.26412872     29.65893566     57.99445819      4.06866089
    C     12.84143344     31.02156691     56.57474809      4.03839940
    H     10.93733712     31.61272953     57.37396687      0.90078800
    C     14.04725829     30.31400278     56.79985998      4.03835652
    H     15.18974379     29.11424849     58.16801350      0.90083389
    H     12.69060824     31.52818117     55.62697002      0.89483669
    H     14.80347620     30.28959889     56.02208987      0.89483239
   36
Geometry Step: 19
    C     10.43536337     29.07391103     63.24955779      3.96621067
    C      9.44788853     29.08338563     64.25866195      4.06021898
    C     11.67012911     28.34461111     63.47860683      3.96619720
    C     10.25563406     29.75628198     62.02901620      4.04502780
    C      9.63763408     28.41359310     65.48133221      3.94537742
    H      8.51993560     29.62818399     64.08550742      0.90193385
    C     11.85047552     27.66645949     64.70417311      4.06017197
    C     12.65910222     28.33606130     62.47418761      4.04502754
    C     11.24460933     29.74773404     61.02459942      3.96619691
    H      9.33003508     30.30359618     61.85801555      0.90193000
    C      8.64982492     28.43293509     66.51032105      4.06870951
    C     10.86743800     27.68964373     65.71020613      3.94538233
    H     12.77641250     27.11723540     64.87442465      0.90190774
    H     13.58470116     27.78874381     62.64518835      0.90193045
    C     12.47937428     29.01843521     61.25364703      3.96621106
    C     11.06426806     30.42588371     59.79903440      4.06017226
    C      8.86706999     27.77775209     67.70459957      4.03842828
    H      7.72311509     28.97671009     66.34011416      0.90075695
    C     11.05050675     27.02206414     66.95780351      4.06867742
    C     13.46685098     29.00896222     60.24454496      4.06021898
    C     12.04730620     30.40270886     58.79300357      3.94538205
    H     10.13834495     30.97512526     59.62879709      0.90190789
    C     10.07284531     27.06996217     67.92972543      4.03850408
    H      8.11130327     27.80162614     68.48341165      0.89495034
    H     11.97584309     26.47797916     67.13397775      0.90069561
    H     14.39479988     28.46415401     60.41770248      0.90193425
    C     13.27711043     29.67876185     59.02187812      3.94537713
    C     11.86423702     31.07028444     57.54540527      4.06867742
    H     10.22266613     26.56335153     68.87813287      0.89491959
    C     14.26492484     29.65942009     57.99289588      4.06870943
    C     12.84190271     31.02238912     56.57348771      4.03850433
    H     10.93889569     31.61435685     57.36922309      0.90069539
    C     14.04768129     30.31460861     56.79862084      4.03842842
    H     15.19163733     29.11564796     58.16310642      0.90075661
    H     12.69208158     31.52899482     55.62507742      0.89491964
    H     14.80345032     30.29074555     56.01981410      0.89495047
   36
Geometry Step: 20
    C     10.43490810     29.07392760     63.25025796      3.96629461
    C      9.44745461     29.08347169     64.25945323      4.06022143
    C     11.67011374     28.34442841     63.47933624      3.96630525
    C     10.25570535     29.75618290     62.02902622      4.04493531
    C      9.63735871     28.41358050     65.48177746      3.94528516
    H      8.51996103     29.62821615     64.08640900      0.90183603
    C     11.85039995     27.66642222     64.70502259      4.06016872
    C     12.65903163     28.33616010     62.47417794      4.04493519
    C     11.24462538     29.74791529     61.02386974      3.96630514
    H      9.32980313     30.30378946     61.85773001      0.90204822
    C      8.64956227     28.43289171     66.51065938      4.06873635
    C     10.86726178     27.68955230     65.71065880      3.94529898
    H     12.77610024     27.11761637     64.87513067      0.90182753
    H     13.58493301     27.78855218     62.64547415      0.90204847
    C     12.47983030     29.01841776     61.25294763      3.96629472
    C     11.06434360     30.42592085     59.79818444      4.06016897
    C      8.86679603     27.77767062     67.70483344      4.03843714
    H      7.72261110     28.97625796     66.34156276      0.90071092
    C     11.05047885     27.02186976     66.95814376      4.06869573
    C     13.46728534     29.00887633     60.24375472      4.06022159
    C     12.04748307     30.40279978     58.79255052      3.94529867
    H     10.13865503     30.97474413     59.62809059      0.90182776
    C     10.07285479     27.06965306     67.92998574      4.03851596
    H      8.11090905     27.80131982     68.48438704      0.89503184
    H     11.97536504     26.47751153     67.13527247      0.90065320
    H     14.39477330     28.46412197     60.41679977      0.90183627
    C     13.27738665     29.67877429     59.02143392      3.94528494
    C     11.86426475     31.07047928     57.54506481      4.06869572
    H     10.22236460     26.56283240     68.87902286      0.89499742
    C     14.26518796     29.65946444     57.99255794      4.06873636
    C     12.84189324     31.02269932     56.57322776      4.03851620
    H     10.93937303     31.61482440     57.36792760      0.90065290
    C     14.04795504     30.31469011     56.79838682      4.03843725
    H     15.19214105     29.11610058     58.16165808      0.90071060
    H     12.69238379     31.52951489     55.62418815      0.89499744
    H     14.80384403     30.29104960     56.01883750      0.89503201
   36
Geometry Step: 21
    C     10.43481806     29.07391924     63.25048467      3.96632905
    C      9.44736018     29.08353989     64.25962382      4.06022495
    C     11.67020949     28.34431655     63.47949968      3.96634805
    C     10.25566528     29.75617010     62.02909968      4.04491318
    C      9.63732046     28.41365090     65.48178379      3.94527740
    H      8.52011109     29.62814476     64.08650963      0.90178891
    C     11.85047053     27.66641402     64.70518146      4.06017677
    C     12.65907202     28.33617261     62.47410499      4.04491313
    C     11.24452996     29.74802690     61.02370656      3.96634805
    H      9.32968859     30.30381719     61.85772145      0.90207747
    C      8.64953715     28.43295328     66.51062822      4.06874006
    C     10.86726963     27.68957953     65.71061806      3.94528765
    H     12.77597377     27.11778392     64.87511402      0.90178241
    H     13.58504746     27.78852457     62.64548257      0.90207761
    C     12.47992050     29.01842530     61.25272148      3.96632904
    C     11.06427326     30.42593071     59.79802605      4.06017697
    C      8.86666752     27.77771328     67.70479266      4.03842005
    H      7.72265885     28.97625736     66.34148629      0.90070280
    C     11.05052714     27.02192221     66.95807222      4.06870601
    C     13.46737990     29.00880753     60.24358479      4.06022515
    C     12.04747552     30.40277192     58.79259130      3.94528737
    H     10.13877951     30.97457691     59.62810618      0.90178265
    C     10.07290694     27.06960103     67.92994759      4.03849499
    H      8.11056205     27.80138915     68.48453822      0.89505625
    H     11.97538370     26.47754126     67.13508165      0.90064941
    H     14.39462324     28.46419391     60.41669894      0.90178905
    C     13.27742514     29.67870276     59.02142801      3.94527724
    C     11.86421642     31.07042665     57.54513629      4.06870601
    H     10.22254168     26.56260049     68.87918907      0.89502442
    C     14.26521318     29.65940334     57.99258904      4.06874009
    C     12.84184100     31.02275152     56.57326580      4.03849520
    H     10.93935425     31.61479499     57.36811856      0.90064910
    C     14.04808372     30.31464747     56.79842713      4.03842013
    H     15.19209277     29.11610148     58.16173444      0.90070252
    H     12.69220680     31.52974688     55.62402190      0.89502443
    H     14.80419178     30.29098012     56.01868553      0.89505643
   36
Geometry Step: 22
    C     10.43480750     29.07393145     63.25063534      3.96634451
    C      9.44735117     29.08361839     64.25977044      4.06022409
    C     11.67031992     28.34426439     63.47956286      3.96637197
    C     10.25560482     29.75616397     62.02918518      4.04490310
    C      9.63727924     28.41371913     65.48185153      3.94528660
    H      8.52021598     29.62810264     64.08665063      0.90176642
    C     11.85052792     27.66647934     64.70527735      4.06018263
    C     12.65913278     28.33617840     62.47402012      4.04490310
    C     11.24441968     29.74807902     61.02364374      3.96637205
    H      9.32960468     30.30380284     61.85773805      0.90208530
    C      8.64949666     28.43298980     66.51069387      4.06874229
    C     10.86726258     27.68962010     65.71061108      3.94529350
    H     12.77589598     27.11795476     64.87513579      0.90175981
    H     13.58513161     27.78853885     62.64546589      0.90208535
    C     12.47993103     29.01841221     61.25257133      3.96634444
    C     11.06421603     30.42586749     59.79793092      4.06018276
    C      8.86651544     27.77769881     67.70486842      4.03840351
    H      7.72269847     28.97628466     66.34135160      0.90070368
    C     11.05051836     27.02198039     66.95806930      4.06871347
    C     13.46738902     29.00872834     60.24343879      4.06022428
    C     12.04748265     30.40273069     58.79259848      3.94529326
    H     10.13885513     30.97440622     59.62808303      0.90176002
    C     10.07288879     27.06953476     67.92998303      4.03846700
    H      8.11018566     27.80149000     68.48460767      0.89505831
    H     11.97542812     26.47758494     67.13478985      0.90065710
    H     14.39451875     28.46423658     60.41655780      0.90176649
    C     13.27746642     29.67863331     59.02136058      3.94528651
    C     11.86422520     31.07036815     57.54513922      4.06871346
    H     10.22277954     26.56234713     68.87926023      0.89503659
    C     14.26525370     29.65936739     57.99252330      4.06874231
    C     12.84185915     31.02281790     56.57323022      4.03846716
    H     10.93930981     31.61475168     57.36841064      0.90065682
    C     14.04823609     30.31466197     56.79835077      4.03840355
    H     15.19205261     29.11607454     58.16186894      0.90070346
    H     12.69196903     31.53000041     55.62395060      0.89503661
    H     14.80456902     30.29087908     56.01861517      0.89505846
   36
Geometry Step: 23
    C     10.43487755     29.07398636     63.25088677      3.96635370
    C      9.44744850     29.08379439     64.26008846      4.06021621
    C     11.67054992     28.34425936     63.47959267      3.96639445
    C     10.25547889     29.75614244     62.02937468      4.04489256
    C      9.63720413     28.41386220     65.48208578      3.94531849
    H      8.52035890     29.62804217     64.08710134      0.90175258
    C     11.85060726     27.66673595     64.70542736      4.06019347
    C     12.65925927     28.33619922     62.47383205      4.04489262
    C     11.24418975     29.74808426     61.02361484      3.96639467
    H      9.32945561     30.30370415     61.85783780      0.90208102
    C      8.64940698     28.43303254     66.51094464      4.06874594
    C     10.86721592     27.68974666     65.71065407      3.94531095
    H     12.77577299     27.11832989     64.87530725      0.90174349
    H     13.58528157     27.78863717     62.64536615      0.90208091
    C     12.47986074     29.01835549     61.25232093      3.96635357
    C     11.06413679     30.42561549     59.79778279      4.06019346
    C      8.86618468     27.77760808     67.70511650      4.03837026
    H      7.72273924     28.97633705     66.34111793      0.90071737
    C     11.05042596     27.02212288     66.95810504      4.06873471
    C     13.46729190     29.00855084     60.24312193      4.06021633
    C     12.04752907     30.40260274     58.79255606      3.94531083
    H     10.13897363     30.97403111     59.62790826      0.90174360
    C     10.07276992     27.06938253     67.93010598      4.03840733
    H      8.10935621     27.80175603     68.48459066      0.89504274
    H     11.97548104     26.47768160     67.13414316      0.90068375
    H     14.39437725     28.46429813     60.41610689      0.90175254
    C     13.27754134     29.67848774     59.02112677      3.94531857
    C     11.86431764     31.07022483     57.54510361      4.06873469
    H     10.22338599     26.56178046     68.87921633      0.89504098
    C     14.26534334     29.65932593     57.99227234      4.06874591
    C     12.84197815     31.02297033     56.57310692      4.03840737
    H     10.93925702     31.61465592     57.36905808      0.90068357
    C     14.04856758     30.31475279     56.79810133      4.03837024
    H     15.19201078     29.11602296     58.16210210      0.90071730
    H     12.69136269     31.53056756     55.62399412      0.89504102
    H     14.80540030     30.29061248     56.01863026      0.89504279
   36
Geometry Step: 24
    C     10.43502927     29.07408760     63.25111884      3.96634186
    C      9.44766457     29.08399875     64.26049306      4.06020230
    C     11.67077292     28.34438365     63.47956409      3.96639120
    C     10.25535785     29.75610301     62.02958291      4.04488691
    C      9.63714580     28.41401389     65.48246890      3.94535179
    H      8.52042162     29.62802244     64.08779967      0.90177312
    C     11.85063526     27.66714754     64.70557997      4.06020293
    C     12.65938084     28.33623795     62.47362540      4.04488700
    C     11.24396660     29.74796058     61.02364451      3.96639149
    H      9.32928969     30.30352980     61.85802539      0.90206266
    C      8.64930344     28.43304779     66.51132181      4.06875860
    C     10.86712012     27.68994993     65.71078828      3.94532690
    H     12.77569729     27.11876553     64.87567150      0.90175976
    H     13.58544880     27.78881094     62.64517883      0.90206242
    C     12.47970858     29.01825246     61.25208976      3.96634176
    C     11.06410860     30.42520876     59.79763243      4.06020275
    C      8.86582017     27.77744073     67.70547403      4.03834017
    H      7.72272286     28.97636805     66.34098242      0.90073867
    C     11.05023879     27.02229285     66.95818424      4.06876722
    C     13.46707604     29.00834488     60.24271832      4.06020227
    C     12.04762405     30.40239811     58.79242263      3.94532694
    H     10.13904481     30.97359499     59.62754008      0.90175970
    C     10.07256610     27.06919903     67.93026597      4.03834056
    H      8.10840376     27.80209339     68.48439631      0.89500627
    H     11.97545190     26.47778850     67.13344515      0.90071963
    H     14.39431669     28.46431893     60.41540845      0.90177300
    C     13.27759898     29.67833361     59.02074390      3.94535205
    C     11.86450496     31.07005381     57.54502463      4.06876719
    H     10.22415817     26.56110817     68.87895284      0.89502957
    C     14.26544666     29.65931207     57.99189498      4.06875849
    C     12.84218224     31.02315395     56.57294653      4.03834047
    H     10.93928668     31.61455008     57.36975711      0.90071963
    C     14.04893295     30.31492030     56.79774231      4.03834011
    H     15.19202622     29.11599284     58.16223691      0.90073879
    H     12.69059052     31.53124055     55.62425720      0.89502965
    H     14.80635466     30.29027425     56.01882261      0.89500619
   36
Geometry Step: 25
    C     10.43514892     29.07422417     63.25125798      3.96631976
    C      9.44787078     29.08416464     64.26085089      4.06018940
    C     11.67086506     28.34462013     63.47955112      3.96636458
    C     10.25532542     29.75604691     62.02968800      4.04488345
    C      9.63713983     28.41412839     65.48283671      3.94536196
    H      8.52034589     29.62807092     64.08860735      0.90181170
    C     11.85059351     27.66755104     64.70572574      4.06020620
    C     12.65941349     28.33629380     62.47352109      4.04488352
    C     11.24387427     29.74772485     61.02365824      3.96636481
    H      9.32918303     30.30334174     61.85823668      0.90204623
    C      8.64920864     28.43303075     66.51166661      4.06878393
    C     10.86702494     27.69017389     65.71098004      3.94532173
    H     12.77568676     27.11909884     64.87621394      0.90179727
    H     13.58555651     27.78899862     62.64496817      0.90204598
    C     12.47958860     29.01811520     61.25195085      3.96631976
    C     11.06414977     30.42480730     59.79748789      4.06020598
    C      8.86558621     27.77727352     67.70575939      4.03833091
    H      7.72256973     28.97630263     66.34123906      0.90075014
    C     11.05004884     27.02238357     66.95827032      4.06880953
    C     13.46686992     29.00817820     60.24236057      4.06018923
    C     12.04771810     30.40217366     58.79223145      3.94532186
    H     10.13905344     30.97326062     59.62699504      0.90179706
    C     10.07238370     27.06904144     67.93037901      4.03830440
    H      8.10774252     27.80231432     68.48412440      0.89497408
    H     11.97525451     26.47780172     67.13319544      0.90073583
    H     14.39439430     28.46427095     60.41460074      0.90181157
    C     13.27760396     29.67821833     59.02037601      3.94536230
    C     11.86469510     31.06996240     57.54493874      4.06880950
    H     10.22473022     26.56058165     68.87858019      0.89500908
    C     14.26554104     29.65932983     57.99155006      4.06878376
    C     12.84236489     31.02331156     56.57283328      4.03830420
    H     10.93948490     31.61453757     57.37000772      0.90073598
    C     14.04916741     30.31508769     56.79745621      4.03833085
    H     15.19217915     29.11605881     58.16197970      0.90075040
    H     12.69001835     31.53176775     55.62462973      0.89500917
    H     14.80701669     30.29005230     56.01909369      0.89497390
   36
Geometry Step: 26
    C     10.43516446     29.07434886     63.25129028      3.96630471
    C      9.44795084     29.08425361     64.26104473      4.06018348
    C     11.67081630     28.34484429     63.47960464      3.96633532
    C     10.25538053     29.75600132     62.02965041      4.04488212
    C      9.63715324     28.41418295     65.48305813      3.94535118
    H      8.52021204     29.62817712     64.08918753      0.90183927
    C     11.85053396     27.66777370     64.70584782      4.06020353
    C     12.65935828     28.33633963     62.47355842      4.04488214
    C     11.24392299     29.74750120     61.02360481      3.96633541
    H      9.32917332     30.30322455     61.85835473      0.90204138
    C      8.64915213     28.43298500     66.51186497      4.06880279
    C     10.86698478     27.69031799     65.71116902      3.94530726
    H     12.77572493     27.11925164     64.87670263      0.90182526
    H     13.58556651     27.78911590     62.64485081      0.90204122
    C     12.47957308     29.01799102     61.25191811      3.96630480
    C     11.06420873     30.42458326     59.79736556      4.06020336
    C      8.86553450     27.77716418     67.70590419      4.03834057
    H      7.72235219     28.97617296     66.34175744      0.90075151
    C     11.04991680     27.02235764     66.95835512      4.06883104
    C     13.46678981     29.00808941     60.24216602      4.06018326
    C     12.04775751     30.40203005     58.79204258      3.94530741
    H     10.13901626     30.97310663     59.62650603      0.90182499
    C     10.07228721     27.06894351     67.93044282      4.03830578
    H      8.10757061     27.80229638     68.48400605      0.89496300
    H     11.97499613     26.47770783     67.13346156      0.90073558
    H     14.39452882     28.46416470     60.41402058      0.90183920
    C     13.27758987     29.67816476     59.02015431      3.94535146
    C     11.86482731     31.06998829     57.54485403      4.06883103
    H     10.22484921     26.56034359     68.87837400      0.89499637
    C     14.26559712     29.65937534     57.99135174      4.06880262
    C     12.84246148     31.02340941     56.57276951      4.03830558
    H     10.93974403     31.61463153     57.36974195      0.90073577
    C     14.04921902     30.31519712     56.79731168      4.03834055
    H     15.19239714     29.11618859     58.16146116      0.90075179
    H     12.68989923     31.53200624     55.62483619      0.89499645
    H     14.80718801     30.29006945     56.01921246      0.89496281
   36
Geometry Step: 27
    C     10.43516450     29.07442318     63.25122657      3.96629954
    C      9.44797614     29.08428983     64.26101715      4.06018094
    C     11.67075274     28.34496461     63.47962366      3.96631574
    C     10.25542520     29.75600321     62.02957093      4.04488693
    C      9.63720416     28.41421587     65.48307889      3.94535021
    H      8.52017578     29.62829621     64.08919812      0.90185417
    C     11.85053763     27.66781584     64.70584394      4.06019841
    C     12.65931339     28.33633803     62.47363726      4.04488690
    C     11.24398673     29.74738136     61.02358567      3.96631572
    H      9.32917752     30.30319133     61.85838898      0.90203950
    C      8.64916984     28.43295923     66.51187696      4.06879948
    C     10.86702145     27.69039384     65.71122749      3.94530830
    H     12.77585164     27.11926855     64.87678895      0.90183793
    H     13.58556208     27.78914925     62.64481692      0.90203943
    C     12.47957314     29.01791740     61.25198119      3.96629969
    C     11.06420484     30.42453926     59.79736884      4.06019830
    C      8.86556103     27.77713802     67.70593315      4.03834115
    H      7.72232650     28.97618768     66.34179456      0.90075877
    C     11.04987101     27.02232565     66.95835523      4.06882617
    C     13.46676427     29.00805341     60.24219269      4.06018072
    C     12.04772066     30.40195504     58.79198408      3.94530842
    H     10.13889121     30.97308888     59.62642040      0.90183766
    C     10.07227146     27.06891740     67.93046880      4.03831062
    H      8.10760490     27.80219795     68.48401988      0.89496263
    H     11.97495959     26.47771305     67.13346185      0.90073980
    H     14.39456507     28.46404558     60.41401030      0.90185414
    C     13.27753862     29.67813302     59.02013325      3.94535041
    C     11.86487326     31.07002041     57.54485390      4.06882619
    H     10.22476851     26.56029557     68.87835766      0.89498983
    C     14.26557898     29.65940035     57.99133968      4.06879933
    C     12.84247716     31.02343519     56.57274353      4.03831046
    H     10.93978118     31.61462608     57.36974184      0.90073998
    C     14.04919221     30.31522325     56.79728322      4.03834117
    H     15.19242321     29.11617384     58.16142413      0.90075900
    H     12.68997983     31.53205433     55.62485280      0.89498990
    H     14.80715296     30.29016795     56.01919941      0.89496246
   36
Geometry Step: 28
    C     10.43513562     29.07458366     63.25115357      3.96630289
    C      9.44797688     29.08440837     64.26098123      4.06017997
    C     11.67066701     28.34517291     63.47972573      3.96629205
    C     10.25549952     29.75600405     62.02941717      4.04489426
    C      9.63729718     28.41433064     65.48309586      3.94534851
    H      8.52016114     29.62854451     64.08920672      0.90186188
    C     11.85059670     27.66789286     64.70588848      4.06019159
    C     12.65923872     28.33633781     62.47378977      4.04489418
    C     11.24407299     29.74717379     61.02348330      3.96629187
    H      9.32917967     30.30312488     61.85844611      0.90204138
    C      8.64920482     28.43293187     66.51187154      4.06879523
    C     10.86711875     27.69056396     65.71132257      3.94531258
    H     12.77607153     27.11937092     64.87694017      0.90184094
    H     13.58555921     27.78921608     62.64476047      0.90204146
    C     12.47960240     29.01775826     61.25205310      3.96630310
    C     11.06414550     30.42445851     59.79732291      4.06019160
    C      8.86559311     27.77709965     67.70596683      4.03834295
    H      7.72231791     28.97621144     66.34184428      0.90076699
    C     11.04979772     27.02226808     66.95833499      4.06881635
    C     13.46676310     29.00793529     60.24222698      4.06017980
    C     12.04762340     30.40178643     58.79188881      3.94531265
    H     10.13867415     30.97298488     59.62627058      0.90184074
    C     10.07225199     27.06884949     67.93050393      4.03832021
    H      8.10765116     27.80196734     68.48407925      0.89496415
    H     11.97489228     26.47772928     67.13341891      0.90074601
    H     14.39457933     28.46379751     60.41400221      0.90186191
    C     13.27744527     29.67802037     59.02011577      3.94534854
    C     11.86494686     31.07007833     57.54487409      4.06881639
    H     10.22459275     26.56015113     68.87836339      0.89498210
    C     14.26554321     29.65942615     57.99134495      4.06879515
    C     12.84249641     31.02350246     56.57270841      4.03832012
    H     10.93984956     31.61460954     57.36978513      0.90074615
    C     14.04915946     30.31526144     56.79725054      4.03834301
    H     15.19243236     29.11615005     58.16137462      0.90076712
    H     12.69015541     31.53219887     55.62484768      0.89498212
    H     14.80710524     30.29039877     56.01914155      0.89496405
   36
Geometry Step: 29
    C     10.43509119     29.07481489     63.25113642      3.96631766
    C      9.44795061     29.08463727     64.26098702      4.06018082
    C     11.67061597     28.34543504     63.47992672      3.96627579
    C     10.25557951     29.75598823     62.02923598      4.04490053
    C      9.63740702     28.41455171     65.48313036      3.94534896
    H      8.52019747     29.62890740     64.08926682      0.90185316
    C     11.85072319     27.66804135     64.70602733      4.06018498
    C     12.65915844     28.33635450     62.47396949      4.04490041
    C     11.24412487     29.74691234     61.02328183      3.96627545
    H      9.32917809     30.30302069     61.85851156      0.90204863
    C      8.64924926     28.43291585     66.51188092      4.06879179
    C     10.86725270     27.69082767     65.71145192      3.94531980
    H     12.77632866     27.11962470     64.87716583      0.90182747
    H     13.58555962     27.78932093     62.64469589      0.90204886
    C     12.47964752     29.01752870     61.25206909      3.96631787
    C     11.06401883     30.42430531     59.79718203      4.06018512
    C      8.86560085     27.77704341     67.70600256      4.03834279
    H      7.72234749     28.97622313     66.34191835      0.90077394
    C     11.04970005     27.02220957     66.95830845      4.06880686
    C     13.46678886     29.00770691     60.24221935      4.06018074
    C     12.04748998     30.40152434     58.79175905      3.94531978
    H     10.13842006     30.97272891     59.62604658      0.90182738
    C     10.07221152     27.06872567     67.93054275      4.03833028
    H      8.10766099     27.80161960     68.48416885      0.89496797
    H     11.97478806     26.47774938     67.13330855      0.90075318
    H     14.39454220     28.46343524     60.41394260      0.90185325
    C     13.27733541     29.67780158     59.02008079      3.94534878
    C     11.86504487     31.07013742     57.54490058      4.06880696
    H     10.22436089     26.55986493     68.87837482      0.89497532
    C     14.26549788     29.65944018     57.99133532      4.06879181
    C     12.84253650     31.02362555     56.57266962      4.03833031
    H     10.93995498     31.61458936     57.36989593      0.90075322
    C     14.04915076     30.31531726     56.79721597      4.03834292
    H     15.19240325     29.11613842     58.16130086      0.90077393
    H     12.69038703     31.53248523     55.62483709      0.89497530
    H     14.80709361     30.29074673     56.01905383      0.89496797
   36
Geometry Step: 30
    C     10.43508969     29.07521204     63.25128682      3.96633917
    C      9.44797461     29.08512768     64.26122414      4.06017701
    C     11.67067688     28.34587551     63.48028730      3.96626099
    C     10.25565044     29.75591430     62.02906707      4.04490319
    C      9.63751489     28.41499968     65.48336178      3.94535824
    H      8.52028613     29.62949618     64.08975610      0.90183511
    C     11.85094653     27.66849553     64.70639653      4.06017926
    C     12.65908747     28.33642956     62.47413705      4.04490305
    C     11.24406507     29.74647262     61.02292071      3.96626056
    H      9.32912683     30.30278500     61.85864567      0.90205902
    C      8.64927215     28.43290492     66.51208157      4.06878823
    C     10.86739950     27.69132441     65.71173140      3.94533209
    H     12.77663743     27.12028906     64.87775724      0.90180350
    H     13.58560952     27.78955763     62.64456316      0.90205937
    C     12.47965008     29.01713336     61.25191768      3.96633932
    C     11.06379533     30.42384594     59.79681036      4.06017953
    C      8.86544379     27.77687706     67.70619051      4.03833570
    H      7.72234670     28.97618563     66.34217045      0.90079225
    C     11.04947043     27.02219341     66.95832963      4.06880260
    C     13.46676431     29.00721686     60.24198037      4.06017705
    C     12.04734411     30.40102907     58.79147903      3.94533198
    H     10.13811356     30.97206103     59.62545610      0.90180353
    C     10.07205276     27.06841953     67.93066945      4.03832628
    H      8.10730968     27.80113999     68.48428217      0.89496418
    H     11.97455830     26.47774390     67.13302946      0.90077920
    H     14.39445276     28.46284796     60.41345371      0.90183523
    C     13.27722782     29.67735570     59.01984888      3.94535784
    C     11.86527493     31.07015430     57.54487942      4.06880275
    H     10.22423540     26.55909136     68.87832352      0.89496383
    C     14.26547387     29.65944888     57.99113425      4.06878837
    C     12.84269475     31.02393092     56.57254287      4.03832643
    H     10.94018628     31.61459549     57.37017583      0.90077915
    C     14.04930658     30.31548284     56.79702906      4.03833589
    H     15.19240421     29.11617638     58.16104901      0.90079209
    H     12.69051222     31.53325941     55.62488957      0.89496373
    H     14.80744294     30.29122607     56.01894248      0.89496428
   36
Geometry Step: 31
    C     10.43516650     29.07566953     63.25153715      3.96636164
    C      9.44802960     29.08581483     64.26150475      4.06017289
    C     11.67088505     28.34636545     63.48069790      3.96626271
    C     10.25568037     29.75578500     62.02896025      4.04490141
    C      9.63765347     28.41562756     65.48358356      3.94537159
    H      8.52042598     29.63025299     64.09030070      0.90180153
    C     11.85128240     27.66914632     64.70686682      4.06017155
    C     12.65905782     28.33656023     62.47424297      4.04490130
    C     11.24385794     29.74598282     61.02250929      3.96626231
    H      9.32904523     30.30250372     61.85877616      0.90207682
    C      8.64931788     28.43297826     66.51226676      4.06879523
    C     10.86755896     27.69196513     65.71197693      3.94534969
    H     12.77698939     27.12119082     64.87841719      0.90177039
    H     13.58568954     27.78983998     62.64443399      0.90207720
    C     12.47957452     29.01667778     61.25166699      3.96636163
    C     11.06345970     30.42319034     59.79633727      4.06017191
    C      8.86526519     27.77667701     67.70631146      4.03831784
    H      7.72241536     28.97616634     66.34235879      0.90080311
    C     11.04926376     27.02224063     66.95831100      4.06880509
    C     13.46670897     29.00653027     60.24169867      4.06017312
    C     12.04718637     30.40038891     58.79123262      3.94534945
    H     10.13776267     30.97115548     59.62479670      0.90177062
    C     10.07185717     27.06805576     67.93070422      4.03830785
    H      8.10687278     27.80055040     68.48430563      0.89496393
    H     11.97435078     26.47772941     67.13255271      0.90080360
    H     14.39431179     28.46209320     60.41290922      0.90180164
    C     13.27709024     29.67672883     59.01962683      3.94537102
    C     11.86548195     31.07010808     57.54489813      4.06880528
    H     10.22410732     26.55810357     68.87816066      0.89496287
    C     14.26542744     29.65937346     57.99094846      4.06879556
    C     12.84288971     31.02429413     56.57250811      4.03830810
    H     10.94039480     31.61461157     57.37065346      0.90080341
    C     14.04948364     30.31568170     56.79690872      4.03831806
    H     15.19233538     29.11619609     58.16086098      0.90080279
    H     12.69063990     31.53424783     55.62505358      0.89496271
    H     14.80787816     30.29181545     56.01892087      0.89496414
   36
Geometry Step: 32
    C     10.43536266     29.07617177     63.25188730      3.96637654
    C      9.44813797     29.08672636     64.26181702      4.06017040
    C     11.67125248     28.34692251     63.48113101      3.96627557
    C     10.25564632     29.75559353     62.02892504      4.04490119
    C      9.63781375     28.41645022     65.48379603      3.94538645
    H      8.52059749     29.63123418     64.09084922      0.90175792
    C     11.85174409     27.67004217     64.70743546      4.06016616
    C     12.65909252     28.33675341     62.47427793      4.04490114
    C     11.24349110     29.74542495     61.02207495      3.96627535
    H      9.32893839     30.30219081     61.85886579      0.90209405
    C      8.64941604     28.43315936     66.51242000      4.06879862
    C     10.86772488     27.69273748     65.71220310      3.94536685
    H     12.77741362     27.12233633     64.87914434      0.90173570
    H     13.58579487     27.79015392     62.64434542      0.90209439
    C     12.47937973     29.01617763     61.25131732      3.96637625
    C     11.06299866     30.42229030     59.79576560      4.06016654
    C      8.86509521     27.77644536     67.70628911      4.03830381
    H      7.72253609     28.97617123     66.34251182      0.90081344
    C     11.04911453     27.02237295     66.95823363      4.06880495
    C     13.46660061     29.00561988     60.24138657      4.06017083
    C     12.04702288     30.39961587     58.79100516      3.94536642
    H     10.13733802     30.97000597     59.62406967      0.90173619
    C     10.07164284     27.06762581     67.93060048      4.03829598
    H      8.10647056     27.79979693     68.48415884      0.89496445
    H     11.97417246     26.47766752     67.13194604      0.90082836
    H     14.39413892     28.46111436     60.41236039      0.90175801
    C     13.27693178     29.67590583     59.01941421      3.94538581
    C     11.86563126     31.06997719     57.54497572      4.06880517
    H     10.22388281     26.55695251     68.87779276      0.89495926
    C     14.26532928     29.65919070     57.99079451      4.06879911
    C     12.84310327     31.02472400     56.57261192      4.03829634
    H     10.94057329     31.61467621     57.37126096      0.90082799
    C     14.04965177     30.31591160     56.79693107      4.03830399
    H     15.19221435     29.11619129     58.16070831      0.90081296
    H     12.69086392     31.53539951     55.62542242      0.89495906
    H     14.80827921     30.29256880     56.01906917      0.89496478
   36
Geometry Step: 33
    C     10.43574984     29.07682341     63.25239907      3.96637607
    C      9.44839916     29.08807514     64.26223914      4.06016589
    C     11.67186156     28.34770046     63.48162906      3.96630117
    C     10.25553213     29.75528733     62.02897415      4.04489884
    C      9.63804853     28.41763302     65.48408925      3.94540083
    H      8.52086257     29.63269999     64.09144340      0.90171258
    C     11.85241488     27.67145497     64.70820859      4.06015814
    C     12.65920788     28.33706192     62.47422952      4.04489890
    C     11.24288172     29.74464489     61.02157511      3.96630125
    H      9.32878711     30.30178583     61.85888970      0.90211251
    C      8.64959900     28.43352102     66.51258695      4.06880558
    C     10.86791233     27.69380719     65.71247707      3.94538685
    H     12.77803853     27.12399782     64.88007729      0.90171083
    H     13.58594489     27.79055987     62.64432237      0.90211268
    C     12.47899389     29.01552861     61.25080721      3.96637541
    C     11.06232890     30.42087394     59.79498913      4.06015849
    C      8.86494466     27.77608583     67.70609302      4.03829162
    H      7.72273987     28.97622827     66.34262866      0.90081919
    C     11.04902128     27.02263982     66.95809573      4.06879860
    C     13.46634013     29.00427329     60.24096631      4.06016660
    C     12.04683831     30.39854379     58.79072927      3.94538619
    H     10.13671103     30.96833940     59.62313613      0.90171162
    C     10.07136660     27.06703511     67.93028252      4.03828812
    H      8.10609327     27.79867672     68.48373929      0.89496513
    H     11.97399630     26.47753672     67.13107706      0.90085430
    H     14.39387246     28.45965131     60.41176550      0.90171263
    C     13.27669969     29.67472091     59.01912083      3.94540027
    C     11.86572430     31.06971244     57.54511405      4.06879874
    H     10.22343869     26.55542061     68.87705333      0.89495342
    C     14.26514729     29.65882785     57.99062665      4.06880622
    C     12.84337853     31.02531526     56.57293004      4.03828855
    H     10.94074860     31.61481167     57.37213083      0.90085376
    C     14.04979996     30.31626847     56.79712614      4.03829170
    H     15.19201032     29.11613372     58.16059189      0.90081854
    H     12.69130741     31.53693217     55.62616250      0.89495319
    H     14.80865591     30.29368893     56.01948976      0.89496556
   36
Geometry Step: 34
    C     10.43624106     29.07744905     63.25287825      3.96635714
    C      9.44879425     29.08949072     64.26266945      4.06016418
    C     11.67250697     28.34853041     63.48200611      3.96632195
    C     10.25537053     29.75495737     62.02906488      4.04490157
    C      9.63830340     28.41882112     65.48439629      3.94540300
    H      8.52120509     29.63429630     64.09181253      0.90168986
    C     11.85309495     27.67304173     64.70894662      4.06015264
    C     12.65937064     28.33739401     62.47414046      4.04490166
    C     11.24223478     29.74381203     61.02119639      3.96632233
    H      9.32866433     30.30142714     61.85874535      0.90212089
    C      8.64981157     28.43398852     66.51274793      4.06880490
    C     10.86808448     27.69485450     65.71273544      3.94540093
    H     12.77872322     27.12573089     64.88095301      0.90171566
    H     13.58606784     27.79091908     62.64446684      0.90212092
    C     12.47850339     29.01490530     61.25033036      3.96635620
    C     11.06164959     30.41928582     59.79424914      4.06015292
    C      8.86489233     27.77565129     67.70576136      4.03828831
    H      7.72290117     28.97635342     66.34273319      0.90081664
    C     11.04907590     27.02294727     66.95796687      4.06878639
    C     13.46594648     29.00286079     60.24053925      4.06016503
    C     12.04666781     30.39749298     58.79046904      3.94540012
    H     10.13602296     30.96660166     59.62225899      0.90171666
    C     10.07110607     27.06642204     67.92983615      4.03829442
    H      8.10596478     27.79739316     68.48322083      0.89497315
    H     11.97388597     26.47731210     67.13033138      0.90086200
    H     14.39352966     28.45805670     60.41139561      0.90168994
    C     13.27644702     29.67352962     59.01881355      3.94540267
    C     11.86566898     31.06940725     57.54524345      4.06878647
    H     10.22270156     26.55397485     68.87618741      0.89494607
    C     14.26493661     29.65836029     57.99046491      4.06880558
    C     12.84363831     31.02592962     56.57337656      4.03829486
    H     10.94085733     31.61504137     57.37287737      0.90086128
    C     14.04985033     30.31670027     56.79745589      4.03828823
    H     15.19184940     29.11600716     58.16048769      0.90081591
    H     12.69204410     31.53837873     55.62702824      0.89494586
    H     14.80878472     30.29497240     56.02000776      0.89497367
   36
Geometry Step: 35
    C     10.43671032     29.07800696     63.25324039      3.96632425
    C      9.44931174     29.09076201     64.26310555      4.06016363
    C     11.67302834     28.34935513     63.48223219      3.96632877
    C     10.25521152     29.75467077     62.02912636      4.04490729
    C      9.63854474     28.41980767     65.48475729      3.94538884
    H      8.52165755     29.63581106     64.09193909      0.90170379
    C     11.85365886     27.67460090     64.70955233      4.06014747
    C     12.65953053     28.33768188     62.47408129      4.04490734
    C     11.24171090     29.74298442     61.02096951      3.96632932
    H      9.32860447     30.30116615     61.85839820      0.90211633
    C      8.64998205     28.43447801     66.51296502      4.06879547
    C     10.86824898     27.69572937     65.71301226      3.94540811
    H     12.77937738     27.12733917     64.88171962      0.90175416
    H     13.58612968     27.79118020     62.64481335      0.90211629
    C     12.47803407     29.01434879     61.24997059      3.96632328
    C     11.06108551     30.41772803     59.79364367      4.06014771
    C      8.86489540     27.77514849     67.70544422      4.03830124
    H      7.72291341     28.97653472     66.34292907      0.90080481
    C     11.04925370     27.02321021     66.95793104      4.06876104
    C     13.46543114     29.00159293     60.24010688      4.06016443
    C     12.04650248     30.39661456     58.79019101      3.94540727
    H     10.13536480     30.96498954     59.62149005      0.90175513
    C     10.07089242     27.06581225     67.92940401      4.03832032
    H      8.10607118     27.79605774     68.48282184      0.89498333
    H     11.97382881     26.47698296     67.12995289      0.90085338
    H     14.39307865     28.45654198     60.41126858      0.90170394
    C     13.27620641     29.67253998     59.01845217      3.94538882
    C     11.86549025     31.06914607     57.54527975      4.06876101
    H     10.22167040     26.55276519     68.87543497      0.89493754
    C     14.26476841     29.65787185     57.99024749      4.06879602
    C     12.84385166     31.02654119     56.57380884      4.03832068
    H     10.94091279     31.61537485     57.37325666      0.90085261
    C     14.04984641     30.31720098     56.79777054      4.03830101
    H     15.19183840     29.11582375     58.16029192      0.90080411
    H     12.69307526     31.53958935     55.62777954      0.89493743
    H     14.80867938     30.29630741     56.02040434      0.89498385
   36
Geometry Step: 36
    C     10.43707073     29.07864155     63.25354509      3.96629294
    C      9.44992317     29.09197920     64.26368166      4.06016658
    C     11.67339974     28.35031233     63.48244200      3.96631097
    C     10.25508674     29.75442925     62.02909780      4.04490981
    C      9.63880997     28.42069370     65.48527025      3.94536183
    H      8.52220334     29.63723169     64.09232075      0.90173807
    C     11.85414366     27.67619840     64.71010768      4.06015057
    C     12.65965587     28.33792377     62.47411210      4.04490979
    C     11.24133702     29.74202546     61.02076008      3.96631139
    H      9.32852611     30.30089851     61.85803235      0.90210322
    C      8.65005454     28.43496942     66.51330000      4.06879081
    C     10.86847304     27.69660025     65.71338115      3.94540036
    H     12.77997830     27.12897467     64.88271352      0.90180338
    H     13.58621125     27.79144791     62.64517856      0.90210320
    C     12.47767329     29.01371481     61.24966769      3.96629228
    C     11.06059920     30.41613252     59.79309040      4.06015072
    C      8.86484506     27.77457775     67.70518635      4.03832711
    H      7.72265379     28.97671933     66.34348587      0.90078586
    C     11.04946833     27.02341437     66.95793178      4.06874852
    C     13.46482221     29.00037894     60.23953352      4.06016714
    C     12.04627489     30.39574094     58.78982177      3.94539969
    H     10.13475990     30.96335030     59.62049252      0.90180420
    C     10.07069833     27.06515419     67.92897322      4.03835236
    H      8.10605916     27.79477072     68.48242871      0.89499459
    H     11.97367941     26.47655539     67.12994404      0.90083294
    H     14.39253625     28.45512046     60.41088713      0.90173832
    C     13.27593981     29.67165216     59.01793865      3.94536206
    C     11.86527478     31.06894279     57.54527931      4.06874842
    H     10.22066113     26.55150703     68.87464064      0.89492993
    C     14.26469753     29.65738190     57.98991246      4.06879112
    C     12.84404598     31.02720092     56.57423959      4.03835254
    H     10.94106172     31.61580586     57.37326726      0.90083223
    C     14.04989703     30.31777064     56.79802604      4.03832681
    H     15.19209990     29.11563699     58.15973458      0.90078529
    H     12.69408478     31.54084881     55.62857248      0.89492990
    H     14.80869245     30.29759324     56.02079396      0.89499503
   36
Geometry Step: 37
    C     10.43703555     29.07878142     63.25344448      3.96629021
    C      9.45020807     29.09209843     64.26384115      4.06017583
    C     11.67330412     28.35057095     63.48233680      3.96628797
    C     10.25503709     29.75447984     62.02899330      4.04491108
    C      9.63891406     28.42069185     65.48541860      3.94533363
    H      8.52257786     29.63738037     64.09219247      0.90177474
    C     11.85417072     27.67649035     64.71001178      4.06016545
    C     12.65970520     28.33787157     62.47421755      4.04491098
    C     11.24143182     29.74176732     61.02086730      3.96628810
    H      9.32849860     30.30095787     61.85774088      0.90208272
    C      8.64997605     28.43517415     66.51335064      4.06878736
    C     10.86864213     27.69665853     65.71343027      3.94538684
    H     12.78005544     27.12924143     64.88283944      0.90182948
    H     13.58624162     27.79138825     62.64546896      0.90208280
    C     12.47770771     29.01357330     61.24976838      3.96628995
    C     11.06056992     30.41584410     59.79318995      4.06016558
    C      8.86488618     27.77440312     67.70501190      4.03835309
    H      7.72233326     28.97690968     66.34375435      0.90075808
    C     11.04976065     27.02339223     66.95792682      4.06874442
    C     13.46453871     29.00026018     60.23937451      4.06017610
    C     12.04610117     30.39568245     58.78977382      3.94538648
    H     10.13468081     30.96308419     59.62036388      0.90182995
    C     10.07076939     27.06503766     67.92872532      4.03837409
    H      8.10620967     27.79450452     68.48231421      0.89500630
    H     11.97376659     26.47632970     67.13042010      0.90079834
    H     14.39216512     28.45496982     60.41101644      0.90177502
    C     13.27583275     29.67165444     59.01779005      3.94533393
    C     11.86498217     31.06896370     57.54528408      4.06874429
    H     10.22022269     26.55145401     68.87442049      0.89494034
    C     14.26477605     29.65717872     57.98986228      4.06878742
    C     12.84397581     31.02731799     56.57448731      4.03837409
    H     10.94097529     31.61603105     57.37279231      0.90079786
    C     14.04985796     30.31794660     56.79819969      4.03835282
    H     15.19242152     29.11544570     58.15946500      0.90075770
    H     12.69452387     31.54090221     55.62879136      0.89494038
    H     14.80854295     30.29785864     56.02090505      0.89500659
   36
Geometry Step: 38
    C     10.43692435     29.07891459     63.25332918      3.96630653
    C      9.45051574     29.09206476     64.26405873      4.06018257
    C     11.67315354     28.35076208     63.48222518      3.96626641
    C     10.25497565     29.75461331     62.02887189      4.04490601
    C      9.63902292     28.42060222     65.48562198      3.94531479
    H      8.52309898     29.63728919     64.09207735      0.90181419
    C     11.85413048     27.67661606     64.70983745      4.06018569
    C     12.65976622     28.33773542     62.47433965      4.04490586
    C     11.24158292     29.74157819     61.02098196      3.96626622
    H      9.32838762     30.30103591     61.85748718      0.90206022
    C      8.64984062     28.43532169     66.51342984      4.06877989
    C     10.86885347     27.69668216     65.71347950      3.94537744
    H     12.78005856     27.12946034     64.88282571      0.90184560
    H     13.58635542     27.79130999     62.64572163      0.90206038
    C     12.47781834     29.01343705     61.24988326      3.96630674
    C     11.06060748     30.41572314     59.79336888      4.06018579
    C      8.86478708     27.77426948     67.70494811      4.03836475
    H      7.72206429     28.97719469     66.34379998      0.90073784
    C     11.05001757     27.02335162     66.95791123      4.06875195
    C     13.46423196     29.00029251     60.23915636      4.06018246
    C     12.04588492     30.39565941     58.78972664      3.94537752
    H     10.13467482     30.96286671     59.62037376      0.90184561
    C     10.07083028     27.06495465     67.92854879      4.03837060
    H      8.10601551     27.79449939     68.48223608      0.89500814
    H     11.97396066     26.47623984     67.13065104      0.90077294
    H     14.39164787     28.45505974     60.41113323      0.90181442
    C     13.27572028     29.67174485     59.01758678      3.94531509
    C     11.86472539     31.06900176     57.54529927      4.06875183
    H     10.22011931     26.55135246     68.87424900      0.89495450
    C     14.26491028     29.65703269     57.98978346      4.06877969
    C     12.84391614     31.02740080     56.57466341      4.03837038
    H     10.94078322     31.61611950     57.37256295      0.90077280
    C     14.04996000     30.31808260     56.79826302      4.03836457
    H     15.19269054     29.11516079     58.15941768      0.90073774
    H     12.69462814     31.54100413     55.62896185      0.89495461
    H     14.80873821     30.29786281     56.02097922      0.89500823
   36
Geometry Step: 39
    C     10.43718209     29.07983286     63.25360285      3.96633203
    C      9.45120317     29.09344126     64.26466323      4.06019037
    C     11.67352001     28.35191072     63.48262780      3.96625484
    C     10.25482806     29.75448835     62.02865177      4.04490316
    C      9.63951501     28.42176669     65.48612118      3.94529854
    H      8.52412533     29.63884149     64.09227592      0.90182427
    C     11.85479795     27.67822233     64.71038045      4.06019652
    C     12.65991416     28.33785961     62.47456044      4.04490302
    C     11.24121719     29.74043052     61.02058115      3.96625448
    H      9.32811149     30.30070932     61.85716334      0.90205103
    C      8.64993145     28.43588853     66.51358897      4.06877527
    C     10.86941196     27.69790626     65.71383979      3.94538843
    H     12.78088808     27.13147935     64.88365186      0.90184691
    H     13.58663338     27.79163747     62.64604524      0.90205122
    C     12.47756146     29.01251837     61.24960991      3.96633250
    C     11.05993758     30.41411684     59.79282733      4.06019658
    C      8.86460054     27.77373486     67.70456549      4.03837075
    H      7.72205966     28.97770220     66.34382449      0.90071624
    C     11.05025922     27.02354087     66.95769233      4.06874521
    C     13.46354597     28.99891668     60.23855188      4.06019005
    C     12.04532330     30.39443474     58.78936699      3.94538879
    H     10.13384148     30.96084365     59.61954333      0.90184673
    C     10.07064420     27.06425021     67.92791820      4.03836980
    H      8.10557976     27.79315290     68.48165238      0.89501164
    H     11.97406027     26.47607471     67.12993371      0.90076240
    H     14.39062496     28.45350887     60.41093657      0.90182450
    C     13.27522619     29.67058062     59.01708730      3.94529880
    C     11.86448384     31.06881150     57.54551808      4.06874508
    H     10.21930917     26.54968720     68.87319134      0.89496271
    C     14.26481835     29.65646547     57.98962373      4.06877494
    C     12.84410262     31.02810507     56.57529363      4.03836947
    H     10.94068605     31.61628717     57.37328362      0.90076243
    C     14.05014753     30.31861752     56.79864473      4.03837062
    H     15.19269508     29.11465282     58.15939149      0.90071625
    H     12.69543873     31.54267044     55.63001930      0.89496284
    H     14.80917368     30.29920847     56.02155993      0.89501161
   36
Geometry Step: 40
    C     10.43717744     29.07995825     63.25366900      3.96635091
    C      9.45131186     29.09350933     64.26482637      4.06019001
    C     11.67356548     28.35198283     63.48272085      3.96626786
    C     10.25479142     29.75453162     62.02861838      4.04489345
    C      9.63958030     28.42189496     65.48627152      3.94530320
    H      8.52441003     29.63887145     64.09241287      0.90182079
    C     11.85482244     27.67830394     64.71046534      4.06020343
    C     12.65995097     28.33781516     62.47459351      4.04489338
    C     11.24117348     29.74035984     61.02048900      3.96626759
    H      9.32801956     30.30069030     61.85706736      0.90205163
    C      8.64987286     28.43590104     66.51366397      4.06877585
    C     10.86951419     27.69805304     65.71395697      3.94539000
    H     12.78091914     27.13180268     64.88367570      0.90183404
    H     13.58672533     27.79165697     62.64614129      0.90205175
    C     12.47756656     29.01239144     61.24954340      3.96635133
    C     11.05991261     30.41403619     59.79274278      4.06020344
    C      8.86442231     27.77367957     67.70463067      4.03835619
    H      7.72210911     28.97782915     66.34380700      0.90071306
    C     11.05025188     27.02350959     66.95772992      4.06875952
    C     13.46343678     28.99884650     60.23838788      4.06018972
    C     12.04522146     30.39428852     58.78925067      3.94539043
    H     10.13380861     30.96052071     59.61951817      0.90183377
    C     10.07055036     27.06415242     67.92791843      4.03834537
    H      8.10519755     27.79312912     68.48165578      0.89500712
    H     11.97415720     26.47613094     67.12981375      0.90076149
    H     14.39034025     28.45348040     60.41080020      0.90182085
    C     13.27516084     29.67045261     59.01693763      3.94530340
    C     11.86449165     31.06884120     57.54548037      4.06875942
    H     10.21943571     26.54934503     68.87311449      0.89497621
    C     14.26487551     29.65645304     57.98954852      4.06877552
    C     12.84419682     31.02820217     56.57529330      4.03834503
    H     10.94059045     31.61623036     57.37340405      0.90076163
    C     14.05032655     30.31867396     56.79857988      4.03835612
    H     15.19264381     29.11452722     58.15940817      0.90071316
    H     12.69531268     31.54301273     55.63009681      0.89497634
    H     14.80955551     30.29923169     56.02155573      0.89500702
   36
Geometry Step: 41
    C     10.43755188     29.08096860     63.25416370      3.96636678
    C      9.45193726     29.09505530     64.26559315      4.06019339
    C     11.67410584     28.35315153     63.48335851      3.96627911
    C     10.25466252     29.75431482     62.02844666      4.04488499
    C      9.64001918     28.42330839     65.48696919      3.94530076
    H      8.52529492     29.64061008     64.09330651      0.90180449
    C     11.85550697     27.68006299     64.71137256      4.06020711
    C     12.66008090     28.33803185     62.47476504      4.04488501
    C     11.24063534     29.73919214     61.01985162      3.96627900
    H      9.32777910     30.30025103     61.85672386      0.90205371
    C      8.64992547     28.43633106     66.51404598      4.06877845
    C     10.86998628     27.69944212     65.71460452      3.94539935
    H     12.78174538     27.13418232     64.88490087      0.90182203
    H     13.58696618     27.79209807     62.64648567      0.90205369
    C     12.47719380     29.01138121     61.24904895      3.96636705
    C     11.05922703     30.41227439     59.79183380      4.06020705
    C      8.86403209     27.77307153     67.70451733      4.03834684
    H      7.72212072     28.97815163     66.34440661      0.90070396
    C     11.05023358     27.02362414     66.95775111      4.06876592
    C     13.46281142     28.99729975     60.23762070      4.06019318
    C     12.04475057     30.39289896     58.78860322      3.94539982
    H     10.13297855     30.95813609     59.61829005      0.90182177
    C     10.07010445     27.06326532     67.92755178      4.03833245
    H      8.10439857     27.79162344     68.48126181      0.89500668
    H     11.97406052     26.47589697     67.12939049      0.90076654
    H     14.38945565     28.45174573     60.40990756      0.90180440
    C     13.27472290     29.66903940     59.01624062      3.94530087
    C     11.86451051     31.06872570     57.54545937      4.06876584
    H     10.21872552     26.54718000     68.87215783      0.89498756
    C     14.26482109     29.65602209     57.98916557      4.06877820
    C     12.84464268     31.02908882     56.57566005      4.03833215
    H     10.94068951     31.61646704     57.37382965      0.90076674
    C     14.05071633     30.31928202     56.79869308      4.03834682
    H     15.19262972     29.11420595     58.15880718      0.90070409
    H     12.69602348     31.54517906     55.63105508      0.89498768
    H     14.81035253     30.30073557     56.02194852      0.89500653
   36
Geometry Step: 42
    C     10.43761180     29.08096705     63.25415002      3.96636055
    C      9.45193212     29.09504496     64.26551591      4.06019380
    C     11.67415290     28.35310329     63.48337903      3.96628916
    C     10.25466046     29.75431696     62.02844482      4.04488598
    C      9.64005322     28.42336968     65.48693374      3.94530792
    H      8.52527717     29.64062955     64.09333498      0.90179850
    C     11.85551541     27.68000863     64.71139704      4.06020429
    C     12.66008315     28.33802985     62.47476621      4.04488603
    C     11.24058891     29.73924070     61.01983045      3.96628917
    H      9.32780361     30.30025047     61.85666749      0.90205288
    C      8.64995344     28.43629641     66.51399864      4.06877815
    C     10.87000480     27.69945860     65.71464148      3.94539968
    H     12.78178766     27.13420879     64.88482623      0.90181912
    H     13.58694111     27.79209878     62.64654232      0.90205281
    C     12.47713405     29.01138294     61.24906230      3.96636067
    C     11.05921929     30.41232765     59.79180798      4.06020420
    C      8.86401155     27.77309608     67.70450232      4.03834332
    H      7.72222366     28.97818162     66.34444633      0.90070720
    C     11.05019824     27.02358958     66.95779185      4.06876637
    C     13.46281562     28.99730917     60.23769741      4.06019367
    C     12.04473388     30.39288289     58.78856623      3.94540002
    H     10.13293690     30.95810978     59.61836572      0.90181896
    C     10.07004666     27.06325952     67.92756598      4.03833423
    H      8.10437524     27.79159331     68.48123002      0.89500332
    H     11.97409674     26.47594431     67.12948574      0.90076821
    H     14.38947219     28.45172723     60.40987899      0.90179840
    C     13.27468996     29.66897841     59.01627648      3.94530800
    C     11.86454608     31.06876001     57.54541877      4.06876632
    H     10.21873000     26.54713672     68.87212531      0.89498741
    C     14.26479266     29.65605653     57.98921277      4.06877798
    C     12.84470030     31.02909435     56.57564605      4.03833404
    H     10.94065349     31.61641917     57.37373379      0.90076837
    C     14.05073635     30.31925765     56.79870862      4.03834332
    H     15.19252555     29.11417663     58.15876746      0.90070729
    H     12.69601913     31.54522215     55.63108844      0.89498748
    H     14.81037497     30.30076562     56.02198126      0.89500319
   36
Geometry Step: 43
    C     10.43781244     29.08095192     63.25407339      3.96633167
    C      9.45199092     29.09496889     64.26527961      4.06019892
    C     11.67422973     28.35297167     63.48342650      3.96631068
    C     10.25466988     29.75434818     62.02840235      4.04489269
    C      9.64024066     28.42351998     65.48684722      3.94531508
    H      8.52526311     29.64068273     64.09340975      0.90179365
    C     11.85551585     27.67983009     64.71144357      4.06019775
    C     12.66007422     28.33799895     62.47480630      4.04489280
    C     11.24051393     29.73937373     61.01978093      3.96631090
    H      9.32786606     30.30027706     61.85640132      0.90204735
    C      8.65007374     28.43620782     66.51380765      4.06878269
    C     10.87009385     27.69949921     65.71479504      3.94538352
    H     12.78199580     27.13428070     64.88452825      0.90182356
    H     13.58687742     27.79207240     62.64680935      0.90204715
    C     12.47693333     29.01139848     61.24913738      3.96633141
    C     11.05922090     30.41250312     59.79175775      4.06019766
    C      8.86394809     27.77314548     67.70441300      4.03833910
    H      7.72255431     28.97837235     66.34462856      0.90071644
    C     11.05012313     27.02347471     66.95792607      4.06877224
    C     13.46275363     28.99738185     60.23793151      4.06019901
    C     12.04465009     30.39284417     58.78841290      3.94538347
    H     10.13273167     30.95803851     59.61866716      0.90182360
    C     10.06986005     27.06321535     67.92757351      4.03834872
    H      8.10426836     27.79148759     68.48105797      0.89499299
    H     11.97422843     26.47613727     67.12998062      0.90076694
    H     14.38948309     28.45167684     60.40980425      0.90179356
    C     13.27450537     29.66882976     59.01636411      3.94531502
    C     11.86462212     31.06887375     57.54528499      4.06877224
    H     10.21870162     26.54697848     68.87196520      0.89498605
    C     14.26467054     29.65614478     57.98940357      4.06878275
    C     12.84488639     31.02913765     56.57563934      4.03834881
    H     10.94052282     31.61622354     57.37323672      0.90076700
    C     14.05079822     30.31920924     56.79879977      4.03833919
    H     15.19219111     29.11398789     58.15858496      0.90071646
    H     12.69604804     31.54537989     55.63125125      0.89498604
    H     14.81047876     30.30087082     56.02215626      0.89499290
   36
Geometry Step: 44
    C     10.43787711     29.08096074     63.25400298      3.96632092
    C      9.45211450     29.09493181     64.26523963      4.06020146
    C     11.67422466     28.35294578     63.48340172      3.96631764
    C     10.25465635     29.75439681     62.02835951      4.04489416
    C      9.64036997     28.42354349     65.48685908      3.94531300
    H      8.52539056     29.64069125     64.09338486      0.90180458
    C     11.85552723     27.67979477     64.71142132      4.06019813
    C     12.66008777     28.33794999     62.47484847      4.04489426
    C     11.24051932     29.73940035     61.01980543      3.96631785
    H      9.32787695     30.30031663     61.85617332      0.90203904
    C      8.65012702     28.43622950     66.51374833      4.06878364
    C     10.87019866     27.69949115     65.71487340      3.94537265
    H     12.78212608     27.13435699     64.88433596      0.90183301
    H     13.58686696     27.79203261     62.64703737      0.90203884
    C     12.47686811     29.01138905     61.24920696      3.96632067
    C     11.05920999     30.41253882     59.79177986      4.06019801
    C      8.86390714     27.77310206     67.70433015      4.03833987
    H      7.72268066     28.97858080     66.34471060      0.90071555
    C     11.05017024     27.02343874     66.95800919      4.06877596
    C     13.46262902     28.99741723     60.23797053      4.06020158
    C     12.04454605     30.39285322     58.78833512      3.94537253
    H     10.13260228     30.95796299     59.61886020      0.90183304
    C     10.06978239     27.06315074     67.92752100      4.03835483
    H      8.10418358     27.79142181     68.48090621      0.89498993
    H     11.97433232     26.47624382     67.13031912      0.90075810
    H     14.38935539     28.45166886     60.40982953      0.90180444
    C     13.27437616     29.66880704     59.01635264      3.94531293
    C     11.86457535     31.06890887     57.54520204      4.06877600
    H     10.21861629     26.54687092     68.87183653      0.89498753
    C     14.26461653     29.65612372     57.98946305      4.06878373
    C     12.84496410     31.02920212     56.57569211      4.03835498
    H     10.94041953     31.61611510     57.37289746      0.90075819
    C     14.05083909     30.31925352     56.79888317      4.03833999
    H     15.19206348     29.11377992     58.15850244      0.90071563
    H     12.69613379     31.54548744     55.63138065      0.89498749
    H     14.81056257     30.30093607     56.02230824      0.89498983
   36
Geometry Step: 45
    C     10.43793520     29.08095790     63.25389318      3.96630478
    C      9.45236086     29.09488205     64.26525126      4.06020055
    C     11.67418043     28.35291039     63.48333139      3.96632873
    C     10.25464326     29.75447508     62.02829932      4.04488976
    C      9.64060276     28.42351488     65.48690734      3.94530466
    H      8.52562468     29.64068320     64.09334562      0.90183078
    C     11.85557930     27.67978685     64.71136746      4.06019633
    C     12.66010072     28.33787126     62.47490821      4.04488979
    C     11.24056308     29.73943626     61.01987562      3.96632883
    H      9.32788283     30.30038988     61.85576153      0.90203132
    C      8.65025352     28.43632548     66.51369075      4.06878626
    C     10.87039204     27.69943185     65.71497880      3.94534915
    H     12.78237916     27.13445984     64.88398749      0.90185355
    H     13.58686232     27.79195867     62.64744882      0.90203119
    C     12.47680862     29.01139047     61.24931548      3.96630467
    C     11.05915851     30.41254910     59.79183498      4.06019628
    C      8.86383633     27.77296614     67.70416301      4.03834002
    H      7.72290099     28.97901188     66.34483201      0.90071528
    C     11.05028715     27.02344562     66.95815947      4.06878190
    C     13.46238148     28.99746487     60.23795771      4.06020056
    C     12.04435245     30.39291398     58.78823075      3.94534901
    H     10.13235097     30.95786162     59.61920954      0.90185341
    C     10.06966741     27.06299470     67.92741270      4.03836220
    H      8.10397646     27.79132673     68.48058656      0.89499082
    H     11.97448714     26.47647366     67.13096866      0.90074411
    H     14.38912205     28.45167667     60.40986949      0.90183068
    C     13.27414258     29.66883659     59.01630469      3.94530457
    C     11.86445881     31.06890116     57.54505199      4.06878197
    H     10.21844415     26.54663809     68.87163161      0.89498980
    C     14.26448962     29.65602942     57.98952132      4.06878633
    C     12.84507925     31.02935850     56.57580073      4.03836238
    H     10.94026502     31.61588168     57.37224675      0.90074426
    C     14.05091000     30.31939065     56.79905068      4.03834021
    H     15.19184222     29.11334873     58.15838028      0.90071546
    H     12.69630646     31.54572064     55.63158603      0.89498973
    H     14.81076871     30.30103011     56.02262760      0.89499068
   36
Geometry Step: 46
    C     10.43797189     29.08096980     63.25384691      3.96629356
    C      9.45253068     29.09494418     64.26529178      4.06019912
    C     11.67415745     28.35291444     63.48331516      3.96633933
    C     10.25465399     29.75450191     62.02825989      4.04488854
    C      9.64082269     28.42353382     65.48692178      3.94529889
    H      8.52577275     29.64076900     64.09335110      0.90184073
    C     11.85571860     27.67985459     64.71137957      4.06019259
    C     12.66008977     28.33784478     62.47494744      4.04488852
    C     11.24058494     29.73943170     61.01989134      3.96633929
    H      9.32789247     30.30040255     61.85547654      0.90203346
    C      8.65043380     28.43644655     66.51365403      4.06879369
    C     10.87056320     27.69942816     65.71503541      3.94533071
    H     12.78267703     27.13457751     64.88371592      0.90186111
    H     13.58685321     27.79194537     62.64773360      0.90203343
    C     12.47677061     29.01137791     61.24936078      3.96629357
    C     11.05902030     30.41248280     59.79182386      4.06019257
    C      8.86376791     27.77281181     67.70402300      4.03833683
    H      7.72319654     28.97940934     66.34484753      0.90072022
    C     11.05035452     27.02352448     66.95827164      4.06878736
    C     13.46221102     28.99740190     60.23791647      4.06019910
    C     12.04418104     30.39291877     58.78817452      3.94533049
    H     10.13205533     30.95774480     59.61948244      0.90186099
    C     10.06956190     27.06279713     67.92734764      4.03836565
    H      8.10373035     27.79118747     68.48028677      0.89499273
    H     11.97456299     26.47675821     67.13139491      0.90073938
    H     14.38897462     28.45159025     60.40986436      0.90184069
    C     13.27392200     29.66881821     59.01629006      3.94529880
    C     11.86439158     31.06882273     57.54494013      4.06878744
    H     10.21828000     26.54629937     68.87149974      0.89498604
    C     14.26430976     29.65590955     57.98955869      4.06879378
    C     12.84518465     31.02955673     56.57586594      4.03836587
    H     10.94018851     31.61559431     57.37181912      0.90073952
    C     14.05097794     30.31954510     56.79919088      4.03833701
    H     15.19154688     29.11295041     58.15836459      0.90072042
    H     12.69647064     31.54605996     55.63171796      0.89498591
    H     14.81101416     30.30116868     56.02292767      0.89499264
   36
Geometry Step: 47
    C     10.43794330     29.08100747     63.25381555      3.96628729
    C      9.45267887     29.09509514     64.26537988      4.06019522
    C     11.67410011     28.35295628     63.48334870      3.96634802
    C     10.25470973     29.75450930     62.02819217      4.04489155
    C      9.64111863     28.42356589     65.48692510      3.94530122
    H      8.52589511     29.64090259     64.09348478      0.90183757
    C     11.85600105     27.67996036     64.71141778      4.06018604
    C     12.66003343     28.33783838     62.47501497      4.04489144
    C     11.24064057     29.73938826     61.01985708      3.96634778
    H      9.32792680     30.30034399     61.85523091      0.90204237
    C      8.65074431     28.43662156     66.51365017      4.06880574
    C     10.87082414     27.69945209     65.71507814      3.94531542
    H     12.78312095     27.13470596     64.88341163      0.90185097
    H     13.58681845     27.79200334     62.64797906      0.90204254
    C     12.47679774     29.01133963     61.24939089      3.96628741
    C     11.05873948     30.41237813     59.79178692      4.06018613
    C      8.86364991     27.77256572     67.70388214      4.03832688
    H      7.72370068     28.97996897     66.34480807      0.90073713
    C     11.05037757     27.02369792     66.95841468      4.06879218
    C     13.46206246     28.99725087     60.23782751      4.06019522
    C     12.04391962     30.39289641     58.78813181      3.94531512
    H     10.13161536     30.95761745     59.61978913      0.90185092
    C     10.06940470     27.06247560     67.92733072      4.03836260
    H      8.10326948     27.79099800     68.47986036      0.89499497
    H     11.97459537     26.47725344     67.13190194      0.90074959
    H     14.38885282     28.45145541     60.40973084      0.90183760
    C     13.27362516     29.66878692     59.01628605      3.94530108
    C     11.86436860     31.06865118     57.54479737      4.06879224
    H     10.21809723     26.54570068     68.87140839      0.89497513
    C     14.26400045     29.65573547     57.98956353      4.06880592
    C     12.84534154     31.02987937     56.57588295      4.03836284
    H     10.94015417     31.61509543     57.37130975      0.90074966
    C     14.05109489     30.31979057     56.79933205      4.03832700
    H     15.19104414     29.11238898     58.15840429      0.90073722
    H     12.69665284     31.54665986     55.63180895      0.89497497
    H     14.81147432     30.30135739     56.02335505      0.89499503
   36
Geometry Step: 48
    C     10.43785991     29.08099856     63.25386037      3.96629416
    C      9.45260817     29.09520455     64.26545205      4.06019360
    C     11.67409763     28.35299352     63.48335003      3.96634557
    C     10.25471988     29.75445977     62.02821857      4.04489657
    C      9.64109406     28.42354214     65.48690112      3.94530761
    H      8.52581252     29.64094634     64.09355361      0.90182216
    C     11.85613477     27.68004493     64.71142923      4.06018550
    C     12.66002289     28.33788832     62.47498952      4.04489643
    C     11.24064185     29.73934913     61.01985593      3.96634529
    H      9.32795483     30.30028606     61.85533620      0.90204719
    C      8.65081936     28.43671025     66.51372371      4.06880791
    C     10.87084637     27.69943683     65.71499204      3.94532550
    H     12.78316108     27.13465808     64.88347120      0.90183467
    H     13.58678983     27.79206131     62.64787338      0.90204742
    C     12.47688114     29.01134853     61.24934677      3.96629434
    C     11.05860582     30.41229416     59.79177653      4.06018561
    C      8.86365312     27.77248278     67.70387682      4.03832639
    H      7.72378069     28.98002340     66.34474513      0.90074064
    C     11.05039727     27.02381201     66.95841815      4.06879038
    C     13.46213453     28.99714360     60.23775652      4.06019359
    C     12.04389611     30.39291090     58.78821727      3.94532529
    H     10.13157533     30.95766582     59.61972967      0.90183467
    C     10.06941557     27.06239817     67.92735787      4.03835969
    H      8.10322522     27.79095475     68.47979489      0.89499795
    H     11.97453657     26.47732918     67.13189728      0.90075607
    H     14.38893583     28.45141020     60.40966146      0.90182224
    C     13.27364938     29.66880977     59.01630943      3.94530750
    C     11.86434828     31.06853893     57.54479378      4.06879042
    H     10.21801970     26.54559058     68.87148524      0.89496837
    C     14.26392701     29.65564672     57.98949023      4.06880803
    C     12.84533066     31.02995773     56.57585552      4.03835986
    H     10.94021080     31.61502020     57.37131401      0.90075606
    C     14.05109170     30.31987234     56.79933676      4.03832645
    H     15.19096620     29.11233303     58.15846782      0.90074065
    H     12.69672967     31.54677049     55.63173096      0.89496820
    H     14.81151961     30.30140080     56.02342021      0.89499804
   36
Geometry Step: 49
    C     10.43778738     29.08100345     63.25394317      3.96630339
    C      9.45251651     29.09534055     64.26553492      4.06018904
    C     11.67414160     28.35304594     63.48338085      3.96634494
    C     10.25471880     29.75438391     62.02826075      4.04490035
    C      9.64106072     28.42357362     65.48689393      3.94532115
    H      8.52570912     29.64102089     64.09370016      0.90180168
    C     11.85628173     27.68014975     64.71146167      4.06018155
    C     12.66002358     28.33796405     62.47494825      4.04490025
    C     11.24059743     29.73929477     61.01982543      3.96634479
    H      9.32798205     30.30020007     61.85548999      0.90205226
    C      8.65090855     28.43679568     66.51381533      4.06880603
    C     10.87087836     27.69946678     65.71492737      3.94534257
    H     12.78319309     27.13464999     64.88357483      0.90181611
    H     13.58676132     27.79214778     62.64771918      0.90205245
    C     12.47695429     29.01134335     61.24926508      3.96630348
    C     11.05845878     30.41218950     59.79174458      4.06018167
    C      8.86363272     27.77239699     67.70386815      4.03832353
    H      7.72392102     28.98008928     66.34469139      0.90074867
    C     11.05039617     27.02393312     66.95843653      4.06878421
    C     13.46222770     28.99700982     60.23767529      4.06018907
    C     12.04386372     30.39287984     58.78828115      3.94534250
    H     10.13154266     30.95767514     59.61962623      0.90181618
    C     10.06939090     27.06231608     67.92737156      4.03834932
    H      8.10314419     27.79087362     68.47969336      0.89499768
    H     11.97451513     26.47741283     67.13189570      0.90077015
    H     14.38903881     28.45133459     60.40951400      0.90180177
    C     13.27368325     29.66877713     59.01631630      3.94532107
    C     11.86434874     31.06841966     57.54477510      4.06878420
    H     10.21792737     26.54541771     68.87152851      0.89496726
    C     14.26383932     29.65556071     57.98939861      4.06880613
    C     12.84535538     31.03004060     56.57584169      4.03834938
    H     10.94022944     31.61493753     57.37131503      0.90077007
    C     14.05111226     30.31995712     56.79934494      4.03832348
    H     15.19082752     29.11226594     58.15852221      0.90074858
    H     12.69682121     31.54694385     55.63168663      0.89496718
    H     14.81160177     30.30148208     56.02352138      0.89499782
   36
Geometry Step: 50
    C     10.43778633     29.08100770     63.25396945      3.96630712
    C      9.45249579     29.09533063     64.26554233      4.06018916
    C     11.67416774     28.35305097     63.48340152      3.96634798
    C     10.25471092     29.75436593     62.02827052      4.04489798
    C      9.64105756     28.42360261     65.48690765      3.94532354
    H      8.52571657     29.64101836     64.09373312      0.90179702
    C     11.85626991     27.68013391     64.71146803      4.06018112
    C     12.66003141     28.33798126     62.47493839      4.04489795
    C     11.24057212     29.73928997     61.01980502      3.96634796
    H      9.32797540     30.30019104     61.85552748      0.90205455
    C      8.65090739     28.43679197     66.51381579      4.06880311
    C     10.87088869     27.69949651     65.71494333      3.94534485
    H     12.78315987     27.13466738     64.88358976      0.90181303
    H     13.58676746     27.79215721     62.64768161      0.90205465
    C     12.47695588     29.01133869     61.24923916      3.96630713
    C     11.05847034     30.41220503     59.79173785      4.06018119
    C      8.86361444     27.77240583     67.70385926      4.03832239
    H      7.72396939     28.98010612     66.34468733      0.90074842
    C     11.05040513     27.02392235     66.95844196      4.06878428
    C     13.46224857     28.99701971     60.23766821      4.06018923
    C     12.04385399     30.39284988     58.78826518      3.94534481
    H     10.13157497     30.95765871     59.61961122      0.90181313
    C     10.06937041     27.06232719     67.92735588      4.03834575
    H      8.10312680     27.79084390     68.47968710      0.89499645
    H     11.97457125     26.47741502     67.13191373      0.90077022
    H     14.38903068     28.45133743     60.40948080      0.90179705
    C     13.27368711     29.66874800     59.01630299      3.94532346
    C     11.86433966     31.06843017     57.54476954      4.06878427
    H     10.21789345     26.54540129     68.87151220      0.89497294
    C     14.26384023     29.65556390     57.98939783      4.06880320
    C     12.84537605     31.03002934     56.57585734      4.03834580
    H     10.94017289     31.61493566     57.37129692      0.90077014
    C     14.05113096     30.31994862     56.79935398      4.03832234
    H     15.19077865     29.11224949     58.15852622      0.90074833
    H     12.69685512     31.54696013     55.63170307      0.89497287
    H     14.81161930     30.30151182     56.02352739      0.89499658
   36
Geometry Step: 51
    C     10.43781087     29.08101177     63.25403956      3.96631075
    C      9.45245441     29.09527579     64.26556455      4.06019261
    C     11.67423390     28.35309320     63.48344044      3.96634777
    C     10.25468395     29.75430070     62.02830542      4.04489553
    C      9.64107330     28.42367809     65.48697639      3.94532624
    H      8.52571389     29.64101123     64.09384761      0.90179087
    C     11.85620353     27.68009140     64.71146982      4.06018407
    C     12.66005808     28.33804379     62.47490307      4.04489568
    C     11.24050820     29.73924884     61.01976705      3.96634807
    H      9.32794841     30.30015758     61.85568276      0.90205690
    C      8.65090358     28.43678513     66.51381506      4.06879751
    C     10.87091340     27.69959350     65.71502035      3.94534709
    H     12.78305124     27.13469495     64.88365549      0.90181277
    H     13.58679345     27.79219156     62.64752620      0.90205673
    C     12.47693275     29.01133361     61.24917010      3.96631052
    C     11.05853569     30.41224669     59.79173503      4.06018393
    C      8.86355802     27.77242089     67.70384724      4.03832637
    H      7.72412389     28.98019462     66.34466099      0.90074634
    C     11.05045234     27.02388308     66.95846957      4.06878525
    C     13.46229046     28.99707464     60.23764707      4.06019277
    C     12.04383066     30.39275230     58.78818833      3.94534712
    H     10.13168092     30.95763438     59.61954529      0.90181297
    C     10.06931268     27.06235608     67.92730975      4.03833969
    H      8.10306872     27.79073138     68.47965789      0.89498792
    H     11.97477365     26.47743779     67.13198994      0.90076650
    H     14.38903166     28.45134515     60.40936554      0.90179076
    C     13.27367315     29.66867238     59.01623544      3.94532620
    C     11.86429206     31.06846836     57.54474145      4.06878520
    H     10.21773913     26.54536552     68.87143338      0.89498580
    C     14.26384309     29.65556902     57.98939752      4.06879758
    C     12.84543429     31.02999996     56.57590350      4.03833970
    H     10.93996926     31.61491379     57.37122063      0.90076648
    C     14.05118887     30.31993486     56.79936635      4.03832631
    H     15.19062277     29.11216218     58.15855240      0.90074625
    H     12.69700946     31.54699534     55.63178220      0.89498580
    H     14.81167802     30.30162446     56.02355557      0.89498796
   36
Geometry Step: 52
    C     10.43781486     29.08101134     63.25403851      3.96630923
    C      9.45246699     29.09527259     64.26557254      4.06019179
    C     11.67422895     28.35310511     63.48343568      3.96634482
    C     10.25468643     29.75429363     62.02830674      4.04489507
    C      9.64108893     28.42367490     65.48698751      3.94532531
    H      8.52570421     29.64101350     64.09386112      0.90179477
    C     11.85619739     27.68010333     64.71146838      4.06018353
    C     12.66005549     28.33805083     62.47490172      4.04489518
    C     11.24051281     29.73923703     61.01977182      3.96634506
    H      9.32794213     30.30015186     61.85570509      0.90205722
    C      8.65091056     28.43679254     66.51381887      4.06879680
    C     10.87091868     27.69959540     65.71503085      3.94534513
    H     12.78305257     27.13468552     64.88366921      0.90181734
    H     13.58680009     27.79219700     62.64750392      0.90205709
    C     12.47692852     29.01133424     61.24917107      3.96630906
    C     11.05854166     30.41223489     59.79173663      4.06018343
    C      8.86355823     27.77241063     67.70384636      4.03832768
    H      7.72412509     28.98022165     66.34465368      0.90074781
    C     11.05046401     27.02388790     66.95847482      4.06878559
    C     13.46227791     28.99707801     60.23763905      4.06019191
    C     12.04382499     30.39275050     58.78817788      3.94534516
    H     10.13167991     30.95764382     59.61953162      0.90181750
    C     10.06931804     27.06234561     67.92730660      4.03834072
    H      8.10305418     27.79071507     68.47965220      0.89498834
    H     11.97477878     26.47745522     67.13199986      0.90076437
    H     14.38904169     28.45134257     60.40935205      0.90179469
    C     13.27365720     29.66867575     59.01622423      3.94532528
    C     11.86428030     31.06846346     57.54473620      4.06878556
    H     10.21771216     26.54535618     68.87142572      0.89498443
    C     14.26383608     29.65556163     57.98939368      4.06879685
    C     12.84542891     31.03001049     56.57590669      4.03834073
    H     10.93996423     31.61489621     57.37121079      0.90076435
    C     14.05118869     30.31994517     56.79936714      4.03832763
    H     15.19062182     29.11213500     58.15855971      0.90074774
    H     12.69703643     31.54700465     55.63178981      0.89498443
    H     14.81169267     30.30164080     56.02356119      0.89498837
   36
Geometry Step: 53
    C     10.43828755     29.08207704     63.25455875      3.96629940
    C      9.45339073     29.09709450     64.26651065      4.06019059
    C     11.67483465     28.35457653     63.48405181      3.96633867
    C     10.25455876     29.75386777     62.02813767      4.04489419
    C      9.64213110     28.42529813     65.48781553      3.94532496
    H      8.52665988     29.64316333     64.09499855      0.90180018
    C     11.85726957     27.68224842     64.71239119      4.06017801
    C     12.66018179     28.33847405     62.47507045      4.04489418
    C     11.23990533     29.73776517     61.01915608      3.96633865
    H      9.32769990     30.29951925     61.85542109      0.90206752
    C      8.65153515     28.43769355     66.51418978      4.06879071
    C     10.87189024     27.70119783     65.71585754      3.94532940
    H     12.78443601     27.13723189     64.88467710      0.90183784
    H     13.58704429     27.79282884     62.64778807      0.90206748
    C     12.47645523     29.01026901     61.24865138      3.96629944
    C     11.05746745     30.41008970     59.79081460      4.06017796
    C      8.86305538     27.77131443     67.70329461      4.03833629
    H      7.72511709     28.98181627     66.34500373      0.90076542
    C     11.05082917     27.02432323     66.95875780      4.06878690
    C     13.46135594     28.99525917     60.23670248      4.06019047
    C     12.04285094     30.39114849     58.78735141      3.94533018
    H     10.13029697     30.95509942     59.61852446      0.90183792
    C     10.06865693     27.06092324     67.92664022      4.03834353
    H      8.10174915     27.78834429     68.47839037      0.89498735
    H     11.97515355     26.47805224     67.13255274      0.90074616
    H     14.38808819     28.44919142     60.40821442      0.90180025
    C     13.27261458     29.66705414     59.01539639      3.94532509
    C     11.86391362     31.06802860     57.54445310      4.06878694
    H     10.21584568     26.54228539     68.87001097      0.89498297
    C     14.26321120     29.65465918     57.98902154      4.06879050
    C     12.84609009     31.03143478     56.57657361      4.03834291
    H     10.93958665     31.61429755     57.37067263      0.90074590
    C     14.05169215     30.32104198     56.79991800      4.03833624
    H     15.18963115     29.11053791     58.15820872      0.90076546
    H     12.69890260     31.55007718     55.63320454      0.89498303
    H     14.81299768     30.30400974     56.02482017      0.89498730
   36
Geometry Step: 54
    C     10.43829593     29.08207596     63.25455366      3.96630138
    C      9.45339092     29.09710361     64.26650807      4.06019474
    C     11.67484844     28.35455503     63.48405858      3.96633920
    C     10.25454208     29.75388298     62.02813537      4.04489964
    C      9.64212767     28.42531002     65.48781585      3.94532768
    H      8.52667571     29.64313669     64.09501129      0.90179467
    C     11.85729744     27.68223823     64.71240422      4.06018422
    C     12.66019864     28.33845917     62.47507275      4.04489965
    C     11.23989159     29.73778650     61.01914910      3.96633921
    H      9.32769687     30.29951387     61.85543554      0.90206111
    C      8.65151553     28.43770811     66.51418564      4.06879564
    C     10.87189842     27.70119453     65.71585631      3.94533371
    H     12.78441389     27.13722717     64.88468120      0.90182731
    H     13.58704718     27.79283408     62.64777366      0.90206108
    C     12.47644680     29.01027023     61.24865628      3.96630144
    C     11.05743988     30.41010003     59.79080150      4.06018422
    C      8.86304889     27.77131444     67.70329966      4.03833764
    H      7.72511245     28.98182311     66.34500781      0.90075894
    C     11.05082741     27.02432752     66.95877107      4.06878554
    C     13.46135562     28.99524983     60.23670478      4.06019466
    C     12.04284327     30.39115163     58.78735272      3.94533420
    H     10.13031928     30.95510405     59.61852047      0.90182734
    C     10.06864802     27.06092261     67.92664343      4.03834253
    H      8.10175523     27.78833151     68.47838653      0.89498547
    H     11.97515751     26.47806262     67.13254786      0.90074725
    H     14.38807221     28.44921820     60.40820172      0.90179469
    C     13.27261778     29.66704225     59.01539599      3.94532779
    C     11.86391600     31.06802367     57.54444070      4.06878529
    H     10.21584494     26.54228098     68.87000948      0.89498338
    C     14.26323085     29.65464487     57.98902588      4.06879556
    C     12.84609868     31.03143547     56.57657041      4.03834208
    H     10.93958259     31.61428746     57.37067670      0.90074738
    C     14.05169832     30.32104184     56.79991295      4.03833770
    H     15.18963549     29.11053121     58.15820456      0.90075890
    H     12.69890342     31.55008152     55.63320614      0.89498330
    H     14.81299139     30.30402266     56.02482428      0.89498543
   36
Geometry Step: 55
    C     10.43834106     29.08206383     63.25454024      3.96630423
    C      9.45343035     29.09711472     64.26650273      4.06020209
    C     11.67489253     28.35448666     63.48406971      3.96633871
    C     10.25450782     29.75392005     62.02813852      4.04490716
    C      9.64213583     28.42534346     65.48782935      3.94533604
    H      8.52670822     29.64304128     64.09506646      0.90178846
    C     11.85735017     27.68222293     64.71245002      4.06019515
    C     12.66023342     28.33842332     62.47506948      4.04490713
    C     11.23984735     29.73785458     61.01913706      3.96633877
    H      9.32766027     30.29950336     61.85550664      0.90204961
    C      8.65146908     28.43774609     66.51418043      4.06879823
    C     10.87191099     27.70118919     65.71587185      3.94533757
    H     12.78435628     27.13718009     64.88471276      0.90181056
    H     13.58708358     27.79284388     62.64770277      0.90204962
    C     12.47640151     29.01028279     61.24866896      3.96630434
    C     11.05738830     30.41011581     59.79075572      4.06019509
    C      8.86302269     27.77132293     67.70329715      4.03833946
    H      7.72507442     28.98186968     66.34502020      0.90074964
    C     11.05083577     27.02434778     66.95880283      4.06878774
    C     13.46131544     28.99523794     60.23670917      4.06020201
    C     12.04283183     30.39115637     58.78733821      3.94533760
    H     10.13037784     30.95515079     59.61848933      0.90181055
    C     10.06861641     27.06091609     67.92666262      4.03834740
    H      8.10176063     27.78827717     68.47837880      0.89498409
    H     11.97517511     26.47811166     67.13253400      0.90074624
    H     14.38803943     28.44931397     60.40814666      0.90178853
    C     13.27260934     29.66700853     59.01538224      3.94533600
    C     11.86390847     31.06800238     57.54441071      4.06878731
    H     10.21583221     26.54226418     68.86999574      0.89497765
    C     14.26327700     29.65460807     57.98903164      4.06879828
    C     12.84612968     31.03144171     56.57655159      4.03834724
    H     10.93956581     31.61423874     57.37068778      0.90074677
    C     14.05172329     30.32103303     56.79991543      4.03833960
    H     15.18967254     29.11048503     58.15819189      0.90074961
    H     12.69891634     31.55009810     55.63322030      0.89497745
    H     14.81298523     30.30407755     56.02483302      0.89498407
   36
Geometry Step: 56
    C     10.43834625     29.08206141     63.25454050      3.96630421
    C      9.45344672     29.09710787     64.26650658      4.06019812
    C     11.67489584     28.35448283     63.48406930      3.96633878
    C     10.25451365     29.75391815     62.02814407      4.04490253
    C      9.64213904     28.42534555     65.48783323      3.94533563
    H      8.52670505     29.64303289     64.09507109      0.90179352
    C     11.85733964     27.68222759     64.71245232      4.06019054
    C     12.66022766     28.33842531     62.47506388      4.04490251
    C     11.23984406     29.73785842     61.01913749      3.96633879
    H      9.32764843     30.29950516     61.85551787      0.90205296
    C      8.65147270     28.43774726     66.51418183      4.06879563
    C     10.87190936     27.70119329     65.71587758      3.94533754
    H     12.78436128     27.13716421     64.88472132      0.90181652
    H     13.58709533     27.79284206     62.64769153      0.90205296
    C     12.47639636     29.01028516     61.24866868      3.96630429
    C     11.05739881     30.41011117     59.79075355      4.06019051
    C      8.86302105     27.77132424     67.70329037      4.03833796
    H      7.72506814     28.98187829     66.34502149      0.90075215
    C     11.05083041     27.02435331     66.95880784      4.06878543
    C     13.46129906     28.99524463     60.23670533      4.06019804
    C     12.04283343     30.39115234     58.78733248      3.94533767
    H     10.13037297     30.95516668     59.61848080      0.90181651
    C     10.06861546     27.06091869     67.92665548      4.03834499
    H      8.10175658     27.78826890     68.47838054      0.89498529
    H     11.97517984     26.47811826     67.13253477      0.90074813
    H     14.38804254     28.44932241     60.40814204      0.90179358
    C     13.27260629     29.66700628     59.01537840      3.94533560
    C     11.86391361     31.06799708     57.54440550      4.06878513
    H     10.21582863     26.54225984     68.86999753      0.89498011
    C     14.26327337     29.65460700     57.98903020      4.06879564
    C     12.84613059     31.03143901     56.57655885      4.03834478
    H     10.93956141     31.61423202     57.37068680      0.90074850
    C     14.05172486     30.32103169     56.79992226      4.03833807
    H     15.18967873     29.11047648     58.15819057      0.90075215
    H     12.69891988     31.55010241     55.63321858      0.89497998
    H     14.81298920     30.30408589     56.02483137      0.89498527
   36
Geometry Step: 57
    C     10.43844275     29.08201856     63.25453480      3.96630757
    C      9.45358772     29.09706615     64.26654248      4.06019284
    C     11.67496632     28.35437945     63.48408879      3.96633132
    C     10.25449598     29.75395181     62.02818638      4.04489288
    C      9.64219401     28.42539894     65.48790211      3.94534058
    H      8.52671892     29.64281758     64.09521480      0.90181070
    C     11.85735057     27.68221306     64.71253729      4.06018844
    C     12.66024626     28.33839359     62.47502116      4.04489287
    C     11.23977345     29.73796158     61.01911723      3.96633108
    H      9.32751153     30.29948285     61.85577479      0.90205259
    C      8.65142870     28.43782991     66.51418092      4.06879063
    C     10.87192320     27.70122693     65.71595932      3.94533858
    H     12.78427843     27.13695716     64.88485407      0.90182305
    H     13.58723148     27.79286291     62.64743489      0.90205265
    C     12.47629973     29.01032845     61.24867324      3.96630757
    C     11.05738920     30.41012650     59.79066942      4.06018858
    C      8.86296825     27.77133107     67.70325130      4.03833706
    H      7.72500861     28.98204065     66.34503242      0.90074802
    C     11.05083375     27.02442212     66.95889190      4.06877908
    C     13.46115722     28.99528440     60.23666819      4.06019287
    C     12.04282046     30.39111860     58.78725190      3.94533848
    H     10.13045825     30.95537385     59.61834896      0.90182291
    C     10.06856350     27.06092112     67.92664062      4.03833969
    H      8.10172221     27.78809994     68.47837150      0.89498913
    H     11.97525543     26.47827494     67.13254229      0.90075217
    H     14.38802810     28.44953806     60.40799843      0.90181063
    C     13.27255143     29.66695194     59.01530941      3.94534049
    C     11.86391037     31.06792782     57.54432285      4.06877900
    H     10.21572506     26.54220504     68.86998199      0.89498570
    C     14.26331693     29.65452614     57.98903161      4.06879069
    C     12.84618115     31.03143564     56.57657480      4.03833970
    H     10.93948880     31.61407511     57.37067417      0.90075235
    C     14.05177572     30.32102436     56.79996160      4.03833720
    H     15.18973651     29.11031500     58.15817905      0.90074809
    H     12.69902341     31.55015653     55.63323524      0.89498569
    H     14.81302218     30.30425631     56.02484229      0.89498913
   36
Geometry Step: 58
    C     10.43844470     29.08201550     63.25454259      3.96630611
    C      9.45358372     29.09706678     64.26654517      4.06019583
    C     11.67496749     28.35438719     63.48408333      3.96633036
    C     10.25449427     29.75395330     62.02819359      4.04489576
    C      9.64219411     28.42539894     65.48790661      3.94534014
    H      8.52672252     29.64281313     64.09520843      0.90180836
    C     11.85735253     27.68220454     64.71253441      4.06019141
    C     12.66024781     28.33839183     62.47501421      4.04489573
    C     11.23977259     29.73795391     61.01912301      3.96633022
    H      9.32751203     30.29948074     61.85578304      0.90205111
    C      8.65143268     28.43783327     66.51418558      4.06878895
    C     10.87192265     27.70123872     65.71596452      3.94533555
    H     12.78428145     27.13694554     64.88486041      0.90182171
    H     13.58723079     27.79286519     62.64742651      0.90205118
    C     12.47629793     29.01033115     61.24866573      3.96630609
    C     11.05738728     30.41013497     59.79067220      4.06019147
    C      8.86296316     27.77132879     67.70324679      4.03833650
    H      7.72501677     28.98203960     66.34503523      0.90074805
    C     11.05084338     27.02442519     66.95888263      4.06878438
    C     13.46116128     28.99528374     60.23666570      4.06019587
    C     12.04282077     30.39110697     58.78724653      3.94533551
    H     10.13045503     30.95538575     59.61834257      0.90182164
    C     10.06855403     27.06092102     67.92665149      4.03834416
    H      8.10171654     27.78809456     68.47837022      0.89499081
    H     11.97525555     26.47828022     67.13254922      0.90074894
    H     14.38802458     28.44954240     60.40800483      0.90180831
    C     13.27255131     29.66695197     59.01530494      3.94534007
    C     11.86390061     31.06792507     57.54433166      4.06878435
    H     10.21572031     26.54220401     68.86998012      0.89498186
    C     14.26331304     29.65452247     57.98902694      4.06878903
    C     12.84619083     31.03143568     56.57656369      4.03834418
    H     10.93948857     31.61406986     57.37066724      0.90074903
    C     14.05178097     30.32102676     56.79996619      4.03833658
    H     15.18972850     29.11031604     58.15817625      0.90074807
    H     12.69902798     31.55015753     55.63323721      0.89498182
    H     14.81302790     30.30426175     56.02484345      0.89499083
   36
Geometry Step: 59
    C     10.43844390     29.08201557     63.25454752      3.96630657
    C      9.45358324     29.09706512     64.26654899      4.06019487
    C     11.67497223     28.35438927     63.48408312      3.96633071
    C     10.25449490     29.75395284     62.02820140      4.04489494
    C      9.64219259     28.42540158     65.48790965      3.94533899
    H      8.52672409     29.64280970     64.09520200      0.90180866
    C     11.85735243     27.68219950     64.71253002      4.06019023
    C     12.66024710     28.33839206     62.47500656      4.04489492
    C     11.23976801     29.73795192     61.01912351      3.96633061
    H      9.32751169     30.29947927     61.85579101      0.90205171
    C      8.65143639     28.43783723     66.51418729      4.06878949
    C     10.87192738     27.70124756     65.71596601      3.94533731
    H     12.78428327     27.13693461     64.88486614      0.90182249
    H     13.58723102     27.79286676     62.64741845      0.90205177
    C     12.47629878     29.01033083     61.24866103      3.96630655
    C     11.05738731     30.41013997     59.79067662      4.06019029
    C      8.86295867     27.77132433     67.70324809      4.03833753
    H      7.72502343     28.98203947     66.34503781      0.90074788
    C     11.05084018     27.02442924     66.95888646      4.06878249
    C     13.46116182     28.99528538     60.23666199      4.06019491
    C     12.04281593     30.39109827     58.78724478      3.94533730
    H     10.13045309     30.95539689     59.61833681      0.90182244
    C     10.06855452     27.06092213     67.92664825      4.03834278
    H      8.10171104     27.78808941     68.47836810      0.89498955
    H     11.97525761     26.47828476     67.13255552      0.90075036
    H     14.38802308     28.44954573     60.40801127      0.90180860
    C     13.27255278     29.66694935     59.01530195      3.94533894
    C     11.86390380     31.06792119     57.54432752      4.06878245
    H     10.21571558     26.54220165     68.86998097      0.89498343
    C     14.26330933     29.65451829     57.98902519      4.06878956
    C     12.84619043     31.03143453     56.57656679      4.03834278
    H     10.93948634     31.61406540     57.37066089      0.90075044
    C     14.05178566     30.32103128     56.79996496      4.03833760
    H     15.18972201     29.11031614     58.15817368      0.90074789
    H     12.69903257     31.55015988     55.63323638      0.89498339
    H     14.81303343     30.30426694     56.02484548      0.89498956
   36
Geometry Step: 60
    C     10.43844521     29.08201467     63.25455273      3.96630669
    C      9.45358251     29.09706428     64.26655157      4.06019492
    C     11.67497581     28.35439127     63.48408207      3.96633043
    C     10.25449521     29.75395313     62.02820717      4.04489523
    C      9.64219386     28.42540367     65.48791252      3.94533883
    H      8.52672521     29.64280636     64.09519589      0.90180826
    C     11.85735398     27.68219412     64.71252752      4.06019050
    C     12.66024672     28.33839158     62.47500093      4.04489522
    C     11.23976455     29.73795001     61.01912478      3.96633035
    H      9.32751138     30.29947783     61.85579901      0.90205173
    C      8.65143931     28.43783962     66.51419169      4.06878920
    C     10.87193096     27.70125513     65.71596810      3.94533717
    H     12.78428351     27.13692466     64.88487114      0.90182222
    H     13.58723127     27.79286824     62.64741039      0.90205177
    C     12.47629751     29.01033154     61.24865597      3.96630667
    C     11.05738572     30.41014534     59.79067914      4.06019054
    C      8.86295529     27.77132105     67.70324716      4.03833734
    H      7.72502880     28.98204017     66.34504006      0.90074797
    C     11.05084160     27.02443318     66.95888664      4.06878334
    C     13.46116258     28.99528621     60.23665952      4.06019496
    C     12.04281225     30.39109080     58.78724254      3.94533718
    H     10.13045276     30.95540701     59.61833181      0.90182219
    C     10.06855168     27.06092242     67.92664967      4.03834307
    H      8.10170530     27.78808417     68.47836635      0.89498982
    H     11.97525845     26.47828996     67.13256163      0.90075017
    H     14.38802201     28.44954897     60.40801740      0.90180821
    C     13.27255147     29.66694727     59.01529911      3.94533878
    C     11.86390235     31.06791737     57.54432711      4.06878330
    H     10.21571098     26.54219981     68.86998051      0.89498311
    C     14.26330642     29.65451572     57.98902079      4.06878926
    C     12.84619337     31.03143421     56.57656526      4.03834307
    H     10.93948537     31.61406028     57.37065471      0.90075024
    C     14.05178919     30.32103462     56.79996595      4.03833740
    H     15.18971680     29.11031541     58.15817145      0.90074797
    H     12.69903703     31.55016173     55.63323683      0.89498307
    H     14.81303922     30.30427223     56.02484714      0.89498984
   36
Geometry Step: 61
    C     10.43844681     29.08201422     63.25455692      3.96630693
    C      9.45358242     29.09706334     64.26655393      4.06019470
    C     11.67497945     28.35439200     63.48408195      3.96633028
    C     10.25449573     29.75395319     62.02821263      4.04489518
    C      9.64219518     28.42540615     65.48791564      3.94533844
    H      8.52672587     29.64280317     64.09519001      0.90180816
    C     11.85735552     27.68218963     64.71252544      4.06019036
    C     12.66024615     28.33839137     62.47499556      4.04489518
    C     11.23976099     29.73794936     61.01912507      3.96633022
    H      9.32751092     30.29947657     61.85580691      0.90205194
    C      8.65144217     28.43784217     66.51419463      4.06878924
    C     10.87193508     27.70126146     65.71596976      3.94533763
    H     12.78428315     27.13691515     64.88487566      0.90182212
    H     13.58723170     27.79286952     62.64740244      0.90205197
    C     12.47629592     29.01033186     61.24865191      3.96630691
    C     11.05738415     30.41014984     59.79068125      4.06019039
    C      8.86295199     27.77131749     67.70324783      4.03833769
    H      7.72503341     28.98204131     66.34504224      0.90074800
    C     11.05084167     27.02443728     66.95888861      4.06878318
    C     13.46116268     28.99528714     60.23665724      4.06019472
    C     12.04280806     30.39108454     58.78724078      3.94533766
    H     10.13045307     30.95541668     59.61832729      0.90182210
    C     10.06855037     27.06092254     67.92664941      4.03834278
    H      8.10169976     27.78807892     68.47836434      0.89498940
    H     11.97525939     26.47829516     67.13256752      0.90075053
    H     14.38802140     28.44955209     60.40802328      0.90180811
    C     13.27255010     29.66694480     59.01529601      3.94533839
    C     11.86390226     31.06791336     57.54432497      4.06878314
    H     10.21570649     26.54219781     68.86998024      0.89498343
    C     14.26330356     29.65451301     57.98901784      4.06878930
    C     12.84619476     31.03143407     56.57656543      4.03834277
    H     10.93948430     31.61405514     57.37064874      0.90075059
    C     14.05179262     30.32103822     56.79996533      4.03833775
    H     15.18971231     29.11031424     58.15816928      0.90074800
    H     12.69904142     31.55016373     55.63323707      0.89498339
    H     14.81304480     30.30427754     56.02484908      0.89498942
   36
Geometry Step: 62
    C     10.43844886     29.08201370     63.25456083      3.96630718
    C      9.45358267     29.09706257     64.26655589      4.06019453
    C     11.67498287     28.35439224     63.48408183      3.96633003
    C     10.25449627     29.75395339     62.02821731      4.04489523
    C      9.64219715     28.42540872     65.48791861      3.94533829
    H      8.52672632     29.64279999     64.09518439      0.90180803
    C     11.85735731     27.68218553     64.71252407      4.06019039
    C     12.66024557     28.33839104     62.47499095      4.04489523
    C     11.23975763     29.73794919     61.01912533      3.96632998
    H      9.32751042     30.29947540     61.85581478      0.90205208
    C      8.65144476     28.43784427     66.51419791      4.06878911
    C     10.87193891     27.70126695     65.71597157      3.94533778
    H     12.78428234     27.13690600     64.88487976      0.90182190
    H     13.58723219     27.79287068     62.64739454      0.90205211
    C     12.47629387     29.01033228     61.24864810      3.96630716
    C     11.05738232     30.41015395     59.79068265      4.06019041
    C      8.86294910     27.77131435     67.70324808      4.03833780
    H      7.72503745     28.98204281     66.34504430      0.90074812
    C     11.05084250     27.02444138     66.95889024      4.06878340
    C     13.46116245     28.99528790     60.23665533      4.06019456
    C     12.04280416     30.39107910     58.78723890      3.94533782
    H     10.13045385     30.95542597     59.61832322      0.90182189
    C     10.06854863     27.06092243     67.92664981      4.03834272
    H      8.10169422     27.78807360     68.47836242      0.89498928
    H     11.97526015     26.47830048     67.13257328      0.90075065
    H     14.38802098     28.44955519     60.40802891      0.90180799
    C     13.27254810     29.66694223     59.01529307      3.94533824
    C     11.86390140     31.06790933     57.54432320      4.06878336
    H     10.21570215     26.54219581     68.86997976      0.89498347
    C     14.26330097     29.65451079     57.98901456      4.06878916
    C     12.84619657     31.03143417     56.57656495      4.03834271
    H     10.93948344     31.61404988     57.37064289      0.90075071
    C     14.05179563     30.32104140     56.79996511      4.03833784
    H     15.18970839     29.11031272     58.15816723      0.90074812
    H     12.69904566     31.55016573     55.63323751      0.89498342
    H     14.81305039     30.30428289     56.02485094      0.89498929
   36
Geometry Step: 63
    C     10.43845113     29.08201327     63.25456428      3.96630742
    C      9.45358322     29.09706189     64.26655765      4.06019436
    C     11.67498611     28.35439200     63.48408194      3.96632980
    C     10.25449681     29.75395360     62.02822163      4.04489525
    C      9.64219929     28.42541141     65.48792158      3.94533812
    H      8.52672667     29.64279680     64.09517902      0.90180797
    C     11.85735915     27.68218188     64.71252314      4.06019038
    C     12.66024499     28.33839073     62.47498670      4.04489525
    C     11.23975444     29.73794949     61.01912533      3.96632976
    H      9.32750985     30.29947434     61.85582258      0.90205223
    C      8.65144719     28.43784632     66.51420073      4.06878905
    C     10.87194262     27.70127182     65.71597334      3.94533799
    H     12.78428128     27.13689710     64.88488351      0.90182169
    H     13.58723276     27.79287173     62.64738672      0.90205226
    C     12.47629160     29.01033263     61.24864473      3.96630741
    C     11.05738046     30.41015762     59.79068361      4.06019040
    C      8.86294637     27.77131133     67.70324861      4.03833798
    H      7.72504109     28.98204453     66.34504631      0.90074823
    C     11.05084323     27.02444545     66.95889231      4.06878347
    C     13.46116190     28.99528856     60.23665363      4.06019438
    C     12.04280039     30.39107427     58.78723708      3.94533804
    H     10.13045489     30.95543498     59.61831949      0.90182169
    C     10.06854715     27.06092221     67.92664999      4.03834258
    H      8.10168878     27.78806825     68.47836044      0.89498906
    H     11.97526096     26.47830581     67.13257894      0.90075083
    H     14.38802066     28.44955831     60.40803428      0.90180793
    C     13.27254592     29.66693953     59.01529012      3.94533808
    C     11.86390065     31.06790531     57.54432102      4.06878343
    H     10.21569795     26.54219373     68.86997929      0.89498359
    C     14.26329854     29.65450863     57.98901174      4.06878909
    C     12.84619809     31.03143437     56.57656471      4.03834256
    H     10.93948254     31.61404461     57.37063714      0.90075088
    C     14.05179845     30.32104445     56.79996461      4.03833801
    H     15.18970485     29.11031097     58.15816524      0.90074822
    H     12.69904977     31.55016782     55.63323793      0.89498355
    H     14.81305588     30.30428828     56.02485287      0.89498907
   36
Geometry Step: 64
    C     10.43845355     29.08201287     63.25456744      3.96630768
    C      9.45358402     29.09706131     64.26655921      4.06019420
    C     11.67498920     28.35439145     63.48408212      3.96632955
    C     10.25449735     29.75395386     62.02822555      4.04489528
    C      9.64220162     28.42541418     65.48792445      3.94533802
    H      8.52672698     29.64279357     64.09517389      0.90180792
    C     11.85736102     27.68217857     64.71252261      4.06019039
    C     12.66024442     28.33839038     62.47498283      4.04489528
    C     11.23975138     29.73795009     61.01912525      3.96632952
    H      9.32750923     30.29947337     61.85583031      0.90205236
    C      8.65144945     28.43784824     66.51420343      4.06878895
    C     10.87194614     27.70127622     65.71597518      3.94533814
    H     12.78428005     27.13688843     64.88488696      0.90182148
    H     13.58723338     27.79287267     62.64737897      0.90205238
    C     12.47628917     29.01033298     61.24864164      3.96630767
    C     11.05737857     30.41016096     59.79068418      4.06019040
    C      8.86294382     27.77130854     67.70324904      4.03833810
    H      7.72504442     28.98204644     66.34504824      0.90074834
    C     11.05084412     27.02444948     66.95889445      4.06878359
    C     13.46116110     28.99528912     60.23665211      4.06019422
    C     12.04279682     30.39106990     58.78723519      3.94533819
    H     10.13045611     30.95544376     59.61831608      0.90182148
    C     10.06854563     27.06092190     67.92665032      4.03834249
    H      8.10168343     27.78806287     68.47835847      0.89498890
    H     11.97526180     26.47831113     67.13258451      0.90075095
    H     14.38802036     28.44956148     60.40803941      0.90180789
    C     13.27254356     29.66693676     59.01528726      3.94533797
    C     11.86389973     31.06790132     57.54431879      4.06878355
    H     10.21569390     26.54219158     68.86997880      0.89498366
    C     14.26329628     29.65450662     57.98900903      4.06878899
    C     12.84619965     31.03143468     56.57656434      4.03834247
    H     10.93948163     31.61403933     57.37063148      0.90075100
    C     14.05180108     30.32104726     56.79996420      4.03833813
    H     15.18970160     29.11030905     58.15816332      0.90074833
    H     12.69905375     31.55016996     55.63323838      0.89498362
    H     14.81306128     30.30429371     56.02485480      0.89498892
   36
Geometry Step: 65
    C     10.43845606     29.08201249     63.25457031      3.96630792
    C      9.45358503     29.09706083     64.26656063      4.06019405
    C     11.67499214     28.35439067     63.48408239      3.96632931
    C     10.25449788     29.75395416     62.02822917      4.04489530
    C      9.64220402     28.42541700     65.48792726      3.94533792
    H      8.52672730     29.64279031     64.09516898      0.90180790
    C     11.85736289     27.68217556     64.71252238      4.06019039
    C     12.66024387     28.33839000     62.47497924      4.04489530
    C     11.23974847     29.73795092     61.01912506      3.96632928
    H      9.32750858     30.29947250     61.85583796      0.90205248
    C      8.65145158     28.43785011     66.51420590      4.06878887
    C     10.87194950     27.70128026     65.71597706      3.94533827
    H     12.78427871     27.13687995     64.88489014      0.90182127
    H     13.58723404     27.79287352     62.64737131      0.90205250
    C     12.47628666     29.01033331     61.24863883      3.96630791
    C     11.05737669     30.41016400     59.79068445      4.06019040
    C      8.86294139     27.77130591     67.70324948      4.03833822
    H      7.72504752     28.98204849     66.34505012      0.90074845
    C     11.05084504     27.02445344     66.95889677      4.06878368
    C     13.46116008     28.99528959     60.23665073      4.06019407
    C     12.04279342     30.39106589     58.78723328      3.94533833
    H     10.13045745     30.95545235     59.61831293      0.90182128
    C     10.06854417     27.06092153     67.92665065      4.03834239
    H      8.10167817     27.78805746     68.47835646      0.89498874
    H     11.97526272     26.47831642     67.13259000      0.90075107
    H     14.38802005     28.44956469     60.40804432      0.90180787
    C     13.27254113     29.66693393     59.01528445      3.94533787
    C     11.86389879     31.06789739     57.54431640      4.06878364
    H     10.21568997     26.54218936     68.86997832      0.89498374
    C     14.26329416     29.65450467     57.98900656      4.06878891
    C     12.84620115     31.03143504     56.57656398      4.03834237
    H     10.93948065     31.61403408     57.37062588      0.90075112
    C     14.05180358     30.32104992     56.79996378      4.03833825
    H     15.18969857     29.11030699     58.15816146      0.90074844
    H     12.69905762     31.55017218     55.63323882      0.89498370
    H     14.81306659     30.30429916     56.02485678      0.89498876
   36
Geometry Step: 66
    C     10.43845862     29.08201212     63.25457295      3.96630817
    C      9.45358622     29.09706044     64.26656193      4.06019391
    C     11.67499495     28.35438972     63.48408270      3.96632907
    C     10.25449840     29.75395450     62.02823254      4.04489531
    C      9.64220647     28.42541985     65.48793000      3.94533784
    H      8.52672764     29.64278701     64.09516428      0.90180790
    C     11.85736474     27.68217279     64.71252240      4.06019040
    C     12.66024333     28.33838960     62.47497590      4.04489532
    C     11.23974568     29.73795191     61.01912481      3.96632905
    H      9.32750789     30.29947171     61.85584553      0.90205259
    C      8.65145358     28.43785193     66.51420821      4.06878880
    C     10.87195270     27.70128402     65.71597900      3.94533839
    H     12.78427730     27.13687164     64.88489309      0.90182107
    H     13.58723474     27.79287427     62.64736373      0.90205261
    C     12.47628409     29.01033364     61.24863623      3.96630816
    C     11.05737484     30.41016680     59.79068446      4.06019041
    C      8.86293906     27.77130343     67.70324986      4.03833833
    H      7.72505043     28.98205064     66.34505195      0.90074855
    C     11.05084601     27.02445732     66.95889919      4.06878377
    C     13.46115889     28.99528997     60.23664945      4.06019393
    C     12.04279019     30.39106216     58.78723132      3.94533845
    H     10.13045887     30.95546076     59.61831003      0.90182108
    C     10.06854271     27.06092113     67.92665104      4.03834231
    H      8.10167300     27.78805203     68.47835442      0.89498860
    H     11.97526372     26.47832167     67.13259544      0.90075117
    H     14.38801971     28.44956794     60.40804901      0.90180786
    C     13.27253866     29.66693107     59.01528173      3.94533780
    C     11.86389779     31.06789353     57.54431392      4.06878373
    H     10.21568617     26.54218708     68.86997785      0.89498381
    C     14.26329217     29.65450278     57.98900424      4.06878883
    C     12.84620263     31.03143544     56.57656356      4.03834229
    H     10.93947961     31.61402886     57.37062035      0.90075121
    C     14.05180596     30.32105242     56.79996342      4.03833835
    H     15.18969573     29.11030482     58.15815964      0.90074854
    H     12.69906136     31.55017445     55.63323925      0.89498377
    H     14.81307179     30.30430463     56.02485879      0.89498862
   36
Geometry Step: 67
    C     10.43846121     29.08201177     63.25457539      3.96630840
    C      9.45358755     29.09706011     64.26656315      4.06019379
    C     11.67499765     28.35438865     63.48408307      3.96632883
    C     10.25449891     29.75395488     62.02823570      4.04489533
    C      9.64220894     28.42542271     65.48793266      3.94533777
    H      8.52672802     29.64278367     64.09515978      0.90180791
    C     11.85736656     27.68217024     64.71252261      4.06019040
    C     12.66024281     28.33838917     62.47497278      4.04489534
    C     11.23974301     29.73795301     61.01912450      3.96632882
    H      9.32750717     30.29947100     61.85585301      0.90205269
    C      8.65145546     28.43785373     66.51421036      4.06878873
    C     10.87195576     27.70128756     65.71598098      3.94533849
    H     12.78427583     27.13686350     64.88489583      0.90182089
    H     13.58723546     27.79287494     62.64735624      0.90205271
    C     12.47628150     29.01033396     61.24863383      3.96630840
    C     11.05737302     30.41016939     59.79068428      4.06019041
    C      8.86293682     27.77130108     67.70325020      4.03833842
    H      7.72505317     28.98205288     66.34505374      0.90074864
    C     11.05084701     27.02446112     66.95890171      4.06878385
    C     13.46115755     28.99529028     60.23664825      4.06019380
    C     12.04278709     30.39105864     58.78722932      3.94533856
    H     10.13046034     30.95546899     59.61830733      0.90182089
    C     10.06854127     27.06092070     67.92665146      4.03834224
    H      8.10166794     27.78804658     68.47835235      0.89498848
    H     11.97526479     26.47832689     67.13260083      0.90075126
    H     14.38801933     28.44957122     60.40805351      0.90180787
    C     13.27253616     29.66692819     59.01527907      3.94533773
    C     11.86389678     31.06788974     57.54431135      4.06878381
    H     10.21568248     26.54218474     68.86997740      0.89498387
    C     14.26329028     29.65450093     57.98900209      4.06878876
    C     12.84620409     31.03143586     56.57656311      4.03834222
    H     10.93947850     31.61402367     57.37061487      0.90075130
    C     14.05180826     30.32105478     56.79996310      4.03833844
    H     15.18969303     29.11030257     58.15815788      0.90074863
    H     12.69906501     31.55017678     55.63323966      0.89498383
    H     14.81307690     30.30431011     56.02486084      0.89498850
   36
Geometry Step: 68
    C     10.43846380     29.08201143     63.25457766      3.96630864
    C      9.45358900     29.09705985     64.26656430      4.06019367
    C     11.67500024     28.35438749     63.48408347      3.96632860
    C     10.25449940     29.75395529     62.02823867      4.04489534
    C      9.64221141     28.42542556     65.48793525      3.94533770
    H      8.52672843     29.64278032     64.09515547      0.90180793
    C     11.85736834     27.68216786     64.71252299      4.06019041
    C     12.66024231     28.33838872     62.47496983      4.04489535
    C     11.23974043     29.73795420     61.01912415      3.96632859
    H      9.32750643     30.29947038     61.85586039      0.90205279
    C      8.65145726     28.43785551     66.51421238      4.06878866
    C     10.87195870     27.70129092     65.71598301      3.94533858
    H     12.78427433     27.13685551     64.88489839      0.90182071
    H     13.58723621     27.79287553     62.64734885      0.90205280
    C     12.47627891     29.01033428     61.24863160      3.96630863
    C     11.05737124     30.41017180     59.79068393      4.06019041
    C      8.86293464     27.77129884     67.70325047      4.03833850
    H      7.72505578     28.98205520     66.34505547      0.90074873
    C     11.05084803     27.02446485     66.95890430      4.06878393
    C     13.46115609     28.99529053     60.23664712      4.06019368
    C     12.04278412     30.39105529     58.78722728      3.94533865
    H     10.13046185     30.95547707     59.61830482      0.90182072
    C     10.06853984     27.06092026     67.92665193      4.03834217
    H      8.10166297     27.78804114     68.47835025      0.89498837
    H     11.97526593     26.47833207     67.13260617      0.90075134
    H     14.38801891     28.44957453     60.40805782      0.90180789
    C     13.27253367     29.66692532     59.01527648      3.94533766
    C     11.86389574     31.06788603     57.54430871      4.06878389
    H     10.21567888     26.54218235     68.86997697      0.89498392
    C     14.26328849     29.65449910     57.98900007      4.06878869
    C     12.84620553     31.03143630     56.57656262      4.03834215
    H     10.93947733     31.61401851     57.37060944      0.90075139
    C     14.05181047     30.32105704     56.79996283      4.03833852
    H     15.18969047     29.11030025     58.15815616      0.90074871
    H     12.69906856     31.55017915     55.63324005      0.89498389
    H     14.81308190     30.30431560     56.02486292      0.89498838
   36
Geometry Step: 69
    C     10.43846638     29.08201110     63.25457977      3.96630886
    C      9.45359055     29.09705964     64.26656538      4.06019356
    C     11.67500275     28.35438628     63.48408391      3.96632838
    C     10.25449989     29.75395572     62.02824148      4.04489535
    C      9.64221387     28.42542840     65.48793778      3.94533764
    H      8.52672888     29.64277695     64.09515132      0.90180795
    C     11.85737007     27.68216563     64.71252351      4.06019041
    C     12.66024182     28.33838824     62.47496704      4.04489536
    C     11.23973794     29.73795544     61.01912376      3.96632837
    H      9.32750568     30.29946983     61.85586768      0.90205287
    C      8.65145896     28.43785728     66.51421428      4.06878860
    C     10.87196154     27.70129414     65.71598508      3.94533867
    H     12.78427281     27.13684767     64.88490077      0.90182054
    H     13.58723696     27.79287605     62.64734156      0.90205289
    C     12.47627632     29.01033459     61.24862951      3.96630885
    C     11.05736950     30.41017406     59.79068345      4.06019042
    C      8.86293253     27.77129670     67.70325069      4.03833858
    H      7.72505827     28.98205757     66.34505715      0.90074880
    C     11.05084906     27.02446849     66.95890695      4.06878400
    C     13.46115452     28.99529072     60.23664605      4.06019358
    C     12.04278126     30.39105209     58.78722521      3.94533873
    H     10.13046339     30.95548499     59.61830249      0.90182055
    C     10.06853843     27.06091981     67.92665243      4.03834211
    H      8.10165809     27.78803569     68.47834812      0.89498826
    H     11.97526714     26.47833720     67.13261146      0.90075142
    H     14.38801844     28.44957785     60.40806196      0.90180792
    C     13.27253119     29.66692247     59.01527395      3.94533761
    C     11.86389469     31.06788239     57.54430603      4.06878396
    H     10.21567537     26.54217991     68.86997657      0.89498397
    C     14.26328679     29.65449729     57.98899817      4.06878863
    C     12.84620695     31.03143675     56.57656209      4.03834209
    H     10.93947609     31.61401340     57.37060406      0.90075146
    C     14.05181262     30.32105919     56.79996262      4.03833859
    H     15.18968801     29.11029787     58.15815450      0.90074879
    H     12.69907202     31.55018156     55.63324043      0.89498394
    H     14.81308682     30.30432108     56.02486505      0.89498828
   36
Geometry Step: 70
    C     10.43846895     29.08201077     63.25458175      3.96630908
    C      9.45359219     29.09705948     64.26656642      4.06019346
    C     11.67500517     28.35438502     63.48408436      3.96632817
    C     10.25450035     29.75395619     62.02824415      4.04489535
    C      9.64221632     28.42543122     65.48794025      3.94533759
    H      8.52672938     29.64277358     64.09514734      0.90180799
    C     11.85737177     27.68216354     64.71252412      4.06019042
    C     12.66024135     28.33838774     62.47496439      4.04489536
    C     11.23973553     29.73795672     61.01912334      3.96632815
    H      9.32750491     30.29946935     61.85587486      0.90205295
    C      8.65146059     28.43785904     66.51421607      4.06878854
    C     10.87196429     27.70129723     65.71598718      3.94533875
    H     12.78427126     27.13683998     64.88490300      0.90182038
    H     13.58723773     27.79287649     62.64733438      0.90205297
    C     12.47627375     29.01033490     61.24862756      3.96630907
    C     11.05736781     30.41017619     59.79068286      4.06019042
    C      8.86293048     27.77129464     67.70325086      4.03833864
    H      7.72506066     28.98205999     66.34505879      0.90074887
    C     11.05085010     27.02447206     66.95890964      4.06878407
    C     13.46115288     28.99529086     60.23664502      4.06019347
    C     12.04277850     30.39104901     58.78722310      3.94533881
    H     10.13046495     30.95549277     59.61830031      0.90182039
    C     10.06853703     27.06091935     67.92665297      4.03834206
    H      8.10165330     27.78803026     68.47834595      0.89498817
    H     11.97526842     26.47834229     67.13261672      0.90075149
    H     14.38801793     28.44958118     60.40806593      0.90180796
    C     13.27252872     29.66691964     59.01527148      3.94533755
    C     11.86389363     31.06787882     57.54430330      4.06878403
    H     10.21567195     26.54217745     68.86997619      0.89498402
    C     14.26328516     29.65449550     57.98899637      4.06878857
    C     12.84620836     31.03143721     56.57656154      4.03834204
    H     10.93947479     31.61400832     57.37059871      0.90075153
    C     14.05181470     30.32106126     56.79996246      4.03833865
    H     15.18968565     29.11029544     58.15815287      0.90074885
    H     12.69907541     31.55018401     55.63324078      0.89498398
    H     14.81309165     30.30432655     56.02486722      0.89498819
   36
Geometry Step: 71
    C     10.43847150     29.08201046     63.25458362      3.96630929
    C      9.45359389     29.09705936     64.26656742      4.06019336
    C     11.67500752     28.35438373     63.48408484      3.96632795
    C     10.25450081     29.75395668     62.02824669      4.04489536
    C      9.64221876     28.42543401     65.48794266      3.94533754
    H      8.52672990     29.64277021     64.09514351      0.90180803
    C     11.85737342     27.68216156     64.71252482      4.06019042
    C     12.66024089     28.33838722     62.47496186      4.04489537
    C     11.23973320     29.73795803     61.01912289      3.96632794
    H      9.32750414     30.29946894     61.85588195      0.90205303
    C      8.65146215     28.43786079     66.51421777      4.06878849
    C     10.87196695     27.70130023     65.71598930      3.94533882
    H     12.78426971     27.13683243     64.88490509      0.90182023
    H     13.58723850     27.79287686     62.64732729      0.90205304
    C     12.47627120     29.01033519     61.24862571      3.96630929
    C     11.05736616     30.41017821     59.79068219      4.06019042
    C      8.86292847     27.77129266     67.70325098      4.03833870
    H      7.72506296     28.98206245     66.34506038      0.90074893
    C     11.05085115     27.02447556     66.95891237      4.06878413
    C     13.46115116     28.99529097     60.23664403      4.06019338
    C     12.04277581     30.39104603     58.78722096      3.94533888
    H     10.13046653     30.95550040     59.61829827      0.90182024
    C     10.06853565     27.06091889     67.92665353      4.03834201
    H      8.10164859     27.78802483     68.47834374      0.89498808
    H     11.97526975     26.47834735     67.13262194      0.90075155
    H     14.38801739     28.44958451     60.40806975      0.90180800
    C     13.27252627     29.66691683     59.01526907      3.94533750
    C     11.86389257     31.06787533     57.54430054      4.06878409
    H     10.21566859     26.54217495     68.86997582      0.89498406
    C     14.26328360     29.65449372     57.98899467      4.06878851
    C     12.84620975     31.03143766     56.57656096      4.03834200
    H     10.93947344     31.61400327     57.37059341      0.90075159
    C     14.05181673     30.32106326     56.79996235      4.03833871
    H     15.18968338     29.11029298     58.15815130      0.90074892
    H     12.69907873     31.55018648     55.63324112      0.89498403
    H     14.81309639     30.30433201     56.02486942      0.89498810
   36
Geometry Step: 72
    C     10.43847403     29.08201015     63.25458538      3.96630950
    C      9.45359565     29.09705927     64.26656838      4.06019328
    C     11.67500980     28.35438243     63.48408533      3.96632775
    C     10.25450125     29.75395719     62.02824913      4.04489536
    C      9.64222117     28.42543678     65.48794502      3.94533749
    H      8.52673046     29.64276685     64.09513983      0.90180808
    C     11.85737503     27.68215969     64.71252559      4.06019043
    C     12.66024045     28.33838668     62.47495944      4.04489537
    C     11.23973093     29.73795934     61.01912243      3.96632774
    H      9.32750336     30.29946859     61.85588893      0.90205309
    C      8.65146365     28.43786253     66.51421938      4.06878844
    C     10.87196955     27.70130314     65.71599146      3.94533888
    H     12.78426815     27.13682501     64.88490705      0.90182008
    H     13.58723928     27.79287716     62.64732031      0.90205310
    C     12.47626867     29.01033549     61.24862397      3.96630950
    C     11.05736456     30.41018012     59.79068145      4.06019043
    C      8.86292652     27.77129073     67.70325105      4.03833875
    H      7.72506518     28.98206495     66.34506192      0.90074899
    C     11.05085220     27.02447898     66.95891512      4.06878419
    C     13.46114939     28.99529104     60.23664307      4.06019329
    C     12.04277320     30.39104313     58.78721881      3.94533895
    H     10.13046811     30.95550789     59.61829636      0.90182009
    C     10.06853429     27.06091842     67.92665412      4.03834197
    H      8.10164396     27.78801942     68.47834151      0.89498801
    H     11.97527114     26.47835236     67.13262713      0.90075161
    H     14.38801681     28.44958784     60.40807343      0.90180805
    C     13.27252384     29.66691405     59.01526670      3.94533746
    C     11.86389150     31.06787191     57.54429776      4.06878415
    H     10.21566530     26.54217243     68.86997548      0.89498409
    C     14.26328210     29.65449195     57.98899305      4.06878846
    C     12.84621112     31.03143812     56.57656037      4.03834196
    H     10.93947205     31.61399827     57.37058814      0.90075165
    C     14.05181872     30.32106520     56.79996228      4.03833875
    H     15.18968118     29.11029048     58.15814977      0.90074897
    H     12.69908199     31.55018898     55.63324143      0.89498406
    H     14.81310105     30.30433746     56.02487165      0.89498803
   36
Geometry Step: 73
    C     10.43847653     29.08200985     63.25458706      3.96630971
    C      9.45359745     29.09705921     64.26656932      4.06019320
    C     11.67501202     28.35438113     63.48408583      3.96632755
    C     10.25450167     29.75395772     62.02825147      4.04489536
    C      9.64222356     28.42543951     65.48794734      3.94533745
    H      8.52673105     29.64276351     64.09513628      0.90180813
    C     11.85737660     27.68215790     64.71252641      4.06019043
    C     12.66024002     28.33838613     62.47495711      4.04489537
    C     11.23972872     29.73796067     61.01912196      3.96632754
    H      9.32750259     30.29946831     61.85589580      0.90205316
    C      8.65146510     28.43786427     66.51422092      4.06878839
    C     10.87197208     27.70130597     65.71599363      3.94533894
    H     12.78426658     27.13681773     64.88490889      0.90181994
    H     13.58724005     27.79287741     62.64731343      0.90205317
    C     12.47626617     29.01033577     61.24862231      3.96630970
    C     11.05736301     30.41018195     59.79068065      4.06019043
    C      8.86292460     27.77128886     67.70325107      4.03833879
    H      7.72506733     28.98206747     66.34506342      0.90074904
    C     11.05085326     27.02448234     66.95891790      4.06878424
    C     13.46114757     28.99529109     60.23664213      4.06019321
    C     12.04277065     30.39104031     58.78721663      3.94533901
    H     10.13046970     30.95551525     59.61829458      0.90181995
    C     10.06853294     27.06091796     67.92665472      4.03834193
    H      8.10163940     27.78801403     68.47833925      0.89498794
    H     11.97527257     26.47835734     67.13263228      0.90075167
    H     14.38801620     28.44959114     60.40807697      0.90180811
    C     13.27252143     29.66691130     59.01526438      3.94533741
    C     11.86389043     31.06786855     57.54429496      4.06878421
    H     10.21566207     26.54216990     68.86997516      0.89498413
    C     14.26328065     29.65449019     57.98899151      4.06878842
    C     12.84621248     31.03143858     56.57655975      4.03834192
    H     10.93947061     31.61399330     57.37058291      0.90075170
    C     14.05182065     30.32106708     56.79996227      4.03833880
    H     15.18967905     29.11028795     58.15814828      0.90074902
    H     12.69908520     31.55019149     55.63324173      0.89498410
    H     14.81310564     30.30434289     56.02487392      0.89498796
   36
Geometry Step: 74
    C     10.43847900     29.08200957     63.25458865      3.96630990
    C      9.45359930     29.09705917     64.26657023      4.06019312
    C     11.67501419     28.35437983     63.48408634      3.96632736
    C     10.25450209     29.75395827     62.02825372      4.04489535
    C      9.64222592     28.42544221     65.48794961      3.94533741
    H      8.52673166     29.64276018     64.09513287      0.90180819
    C     11.85737812     27.68215619     64.71252728      4.06019043
    C     12.66023961     28.33838556     62.47495487      4.04489536
    C     11.23972657     29.73796199     61.01912147      3.96632735
    H      9.32750182     30.29946809     61.85590258      0.90205321
    C      8.65146649     28.43786599     66.51422239      4.06878835
    C     10.87197456     27.70130874     65.71599581      3.94533900
    H     12.78426502     27.13681058     64.88491062      0.90181981
    H     13.58724081     27.79287759     62.64730666      0.90205322
    C     12.47626370     29.01033604     61.24862073      3.96630990
    C     11.05736149     30.41018369     59.79067981      4.06019043
    C      8.86292272     27.77128704     67.70325106      4.03833884
    H      7.72506942     28.98207002     66.34506487      0.90074908
    C     11.05085433     27.02448564     66.95892068      4.06878429
    C     13.46114571     28.99529111     60.23664122      4.06019314
    C     12.04276815     30.39103755     58.78721444      3.94533906
    H     10.13047129     30.95552248     59.61829290      0.90181982
    C     10.06853161     27.06091749     67.92665534      4.03834190
    H      8.10163491     27.78800865     68.47833697      0.89498787
    H     11.97527404     26.47836228     67.13263739      0.90075172
    H     14.38801557     28.44959443     60.40808038      0.90180816
    C     13.27251905     29.66690859     59.01526211      3.94533737
    C     11.86388936     31.06786525     57.54429215      4.06878426
    H     10.21565889     26.54216735     68.86997485      0.89498416
    C     14.26327925     29.65448845     57.98899004      4.06878837
    C     12.84621381     31.03143904     56.57655912      4.03834189
    H     10.93946913     31.61398836     57.37057772      0.90075175
    C     14.05182255     30.32106892     56.79996229      4.03833884
    H     15.18967698     29.11028541     58.15814684      0.90074906
    H     12.69908835     31.55019401     55.63324202      0.89498413
    H     14.81311016     30.30434829     56.02487621      0.89498789
   36
Geometry Step: 75
    C     10.43848144     29.08200929     63.25459017      3.96631010
    C      9.45360117     29.09705916     64.26657112      4.06019305
    C     11.67501630     28.35437853     63.48408686      3.96632717
    C     10.25450249     29.75395883     62.02825589      4.04489535
    C      9.64222827     28.42544487     65.48795183      3.94533737
    H      8.52673229     29.64275688     64.09512957      0.90180825
    C     11.85737961     27.68215455     64.71252818      4.06019044
    C     12.66023920     28.33838497     62.47495271      4.04489536
    C     11.23972447     29.73796330     61.01912098      3.96632716
    H      9.32750105     30.29946792     61.85590924      0.90205327
    C      8.65146784     28.43786771     66.51422380      4.06878831
    C     10.87197700     27.70131145     65.71599801      3.94533905
    H     12.78426345     27.13680356     64.88491225      0.90181969
    H     13.58724157     27.79287772     62.64729999      0.90205328
    C     12.47626125     29.01033631     61.24861922      3.96631009
    C     11.05736001     30.41018536     59.79067894      4.06019043
    C      8.86292088     27.77128525     67.70325100      4.03833887
    H      7.72507145     28.98207258     66.34506629      0.90074912
    C     11.05085539     27.02448887     66.95892347      4.06878434
    C     13.46114383     28.99529111     60.23664033      4.06019306
    C     12.04276571     30.39103486     58.78721224      3.94533912
    H     10.13047287     30.95552957     59.61829133      0.90181970
    C     10.06853029     27.06091702     67.92665598      4.03834187
    H      8.10163049     27.78800331     68.47833466      0.89498782
    H     11.97527555     26.47836718     67.13264248      0.90075176
    H     14.38801492     28.44959770     60.40808366      0.90180822
    C     13.27251669     29.66690591     59.01525987      3.94533733
    C     11.86388828     31.06786201     57.54428934      4.06878431
    H     10.21565576     26.54216480     68.86997455      0.89498418
    C     14.26327790     29.65448671     57.98898863      4.06878833
    C     12.84621513     31.03143950     56.57655847      4.03834185
    H     10.93946762     31.61398346     57.37057256      0.90075180
    C     14.05182441     30.32107071     56.79996235      4.03833887
    H     15.18967497     29.11028284     58.15814544      0.90074910
    H     12.69909145     31.55019654     55.63324229      0.89498416
    H     14.81311461     30.30435368     56.02487852      0.89498783
   36
Geometry Step: 76
    C     10.43848385     29.08200903     63.25459163      3.96631028
    C      9.45360306     29.09705916     64.26657199      4.06019298
    C     11.67501836     28.35437725     63.48408737      3.96632698
    C     10.25450289     29.75395941     62.02825800      4.04489534
    C      9.64223059     28.42544750     65.48795402      3.94533733
    H      8.52673295     29.64275361     64.09512639      0.90180831
    C     11.85738106     27.68215298     64.71252910      4.06019044
    C     12.66023881     28.33838438     62.47495061      4.04489535
    C     11.23972242     29.73796460     61.01912048      3.96632698
    H      9.32750030     30.29946781     61.85591581      0.90205332
    C      8.65146916     28.43786942     66.51422515      4.06878827
    C     10.87197938     27.70131410     65.71600021      3.94533910
    H     12.78426190     27.13679666     64.88491378      0.90181957
    H     13.58724232     27.79287780     62.64729343      0.90205333
    C     12.47625884     29.01033656     61.24861777      3.96631028
    C     11.05735857     30.41018697     59.79067804      4.06019043
    C      8.86291908     27.77128350     67.70325091      4.03833891
    H      7.72507343     28.98207516     66.34506766      0.90074915
    C     11.05085647     27.02449205     66.95892626      4.06878439
    C     13.46114192     28.99529109     60.23663945      4.06019300
    C     12.04276331     30.39103222     58.78721003      3.94533916
    H     10.13047446     30.95553655     59.61828985      0.90181958
    C     10.06852900     27.06091656     67.92665662      4.03834184
    H      8.10162612     27.78799798     68.47833233      0.89498776
    H     11.97527708     26.47837205     67.13264754      0.90075181
    H     14.38801424     28.44960093     60.40808683      0.90180829
    C     13.27251435     29.66690327     59.01525767      3.94533729
    C     11.86388720     31.06785883     57.54428653      4.06878435
    H     10.21565268     26.54216224     68.86997427      0.89498421
    C     14.26327658     29.65448499     57.98898727      4.06878829
    C     12.84621643     31.03143996     56.57655782      4.03834183
    H     10.93946608     31.61397859     57.37056743      0.90075184
    C     14.05182623     30.32107247     56.79996244      4.03833891
    H     15.18967300     29.11028027     58.15814408      0.90074914
    H     12.69909452     31.55019908     55.63324255      0.89498418
    H     14.81311900     30.30435903     56.02488086      0.89498778
   36
Geometry Step: 77
    C     10.43848623     29.08200878     63.25459304      3.96631047
    C      9.45360497     29.09705918     64.26657285      4.06019292
    C     11.67502037     28.35437597     63.48408789      3.96632680
    C     10.25450327     29.75396000     62.02826003      4.04489534
    C      9.64223289     28.42545010     65.48795618      3.94533729
    H      8.52673362     29.64275037     64.09512333      0.90180837
    C     11.85738247     27.68215147     64.71253004      4.06019044
    C     12.66023843     28.33838378     62.47494858      4.04489535
    C     11.23972041     29.73796589     61.01911998      3.96632680
    H      9.32749956     30.29946775     61.85592227      0.90205337
    C      8.65147044     28.43787112     66.51422646      4.06878824
    C     10.87198173     27.70131670     65.71600242      3.94533915
    H     12.78426035     27.13678989     64.88491522      0.90181946
    H     13.58724306     27.79287782     62.64728697      0.90205337
    C     12.47625647     29.01033680     61.24861638      3.96631046
    C     11.05735717     30.41018852     59.79067713      4.06019044
    C      8.86291730     27.77128178     67.70325079      4.03833894
    H      7.72507536     28.98207774     66.34506899      0.90074918
    C     11.05085754     27.02449518     66.95892906      4.06878443
    C     13.46114000     28.99529106     60.23663859      4.06019294
    C     12.04276095     30.39102962     58.78720782      3.94533921
    H     10.13047603     30.95554340     59.61828846      0.90181947
    C     10.06852772     27.06091609     67.92665726      4.03834181
    H      8.10162182     27.78799269     68.47832998      0.89498771
    H     11.97527865     26.47837689     67.13265256      0.90075185
    H     14.38801355     28.44960414     60.40808989      0.90180835
    C     13.27251203     29.66690066     59.01525551      3.94533726
    C     11.86388612     31.06785570     57.54428372      4.06878439
    H     10.21564964     26.54215967     68.86997401      0.89498423
    C     14.26327530     29.65448328     57.98898597      4.06878826
    C     12.84621772     31.03144042     56.57655717      4.03834180
    H     10.93946451     31.61397376     57.37056233      0.90075188
    C     14.05182802     30.32107420     56.79996257      4.03833893
    H     15.18967107     29.11027768     58.15814276      0.90074917
    H     12.69909754     31.55020161     55.63324280      0.89498421
    H     14.81312334     30.30436436     56.02488322      0.89498773
   36
Geometry Step: 78
    C     10.43848857     29.08200854     63.25459439      3.96631065
    C      9.45360688     29.09705921     64.26657370      4.06019286
    C     11.67502234     28.35437472     63.48408841      3.96632663
    C     10.25450365     29.75396060     62.02826201      4.04489533
    C      9.64223517     28.42545266     65.48795830      3.94533725
    H      8.52673430     29.64274717     64.09512037      0.90180844
    C     11.85738386     27.68215001     64.71253099      4.06019044
    C     12.66023805     28.33838316     62.47494661      4.04489534
    C     11.23971845     29.73796716     61.01911948      3.96632662
    H      9.32749883     30.29946774     61.85592862      0.90205341
    C      8.65147168     28.43787281     66.51422771      4.06878820
    C     10.87198405     27.70131926     65.71600463      3.94533919
    H     12.78425881     27.13678323     64.88491658      0.90181935
    H     13.58724378     27.79287780     62.64728061      0.90205341
    C     12.47625412     29.01033703     61.24861503      3.96631064
    C     11.05735580     30.41019001     59.79067620      4.06019044
    C      8.86291555     27.77128009     67.70325064      4.03833896
    H      7.72507726     28.98208033     66.34507028      0.90074921
    C     11.05085862     27.02449826     66.95893184      4.06878447
    C     13.46113807     28.99529101     60.23663774      4.06019288
    C     12.04275863     30.39102707     58.78720561      3.94533925
    H     10.13047760     30.95555013     59.61828716      0.90181936
    C     10.06852645     27.06091562     67.92665792      4.03834179
    H      8.10161757     27.78798742     68.47832761      0.89498767
    H     11.97528025     26.47838169     67.13265756      0.90075188
    H     14.38801285     28.44960731     60.40809284      0.90180842
    C     13.27250974     29.66689808     59.01525339      3.94533722
    C     11.86388503     31.06785262     57.54428091      4.06878443
    H     10.21564663     26.54215711     68.86997375      0.89498425
    C     14.26327405     29.65448158     57.98898471      4.06878822
    C     12.84621898     31.03144088     56.57655651      4.03834178
    H     10.93946291     31.61396895     57.37055727      0.90075191
    C     14.05182978     30.32107590     56.79996273      4.03833896
    H     15.18966918     29.11027509     58.15814148      0.90074919
    H     12.69910053     31.55020415     55.63324305      0.89498423
    H     14.81312761     30.30436966     56.02488560      0.89498768
   36
Geometry Step: 79
    C     10.43849089     29.08200832     63.25459570      3.96631082
    C      9.45360881     29.09705926     64.26657453      4.06019281
    C     11.67502427     28.35437348     63.48408893      3.96632646
    C     10.25450401     29.75396121     62.02826394      4.04489532
    C      9.64223743     28.42545519     65.48796039      3.94533722
    H      8.52673499     29.64274400     64.09511751      0.90180851
    C     11.85738521     27.68214860     64.71253195      4.06019045
    C     12.66023769     28.33838254     62.47494470      4.04489533
    C     11.23971654     29.73796841     61.01911897      3.96632645
    H      9.32749811     30.29946777     61.85593488      0.90205345
    C      8.65147290     28.43787448     66.51422893      4.06878817
    C     10.87198633     27.70132178     65.71600684      3.94533923
    H     12.78425728     27.13677668     64.88491786      0.90181925
    H     13.58724449     27.79287773     62.64727436      0.90205346
    C     12.47625180     29.01033724     61.24861373      3.96631082
    C     11.05735446     30.41019145     59.79067526      4.06019044
    C      8.86291383     27.77127842     67.70325045      4.03833899
    H      7.72507912     28.98208293     66.34507153      0.90074924
    C     11.05085970     27.02450129     66.95893462      4.06878450
    C     13.46113613     28.99529095     60.23663690      4.06019282
    C     12.04275634     30.39102457     58.78720340      3.94533929
    H     10.13047915     30.95555674     59.61828593      0.90181926
    C     10.06852521     27.06091515     67.92665857      4.03834177
    H      8.10161337     27.78798219     68.47832523      0.89498763
    H     11.97528186     26.47838645     67.13266252      0.90075192
    H     14.38801213     28.44961044     60.40809569      0.90180849
    C     13.27250746     29.66689554     59.01525129      3.94533719
    C     11.86388394     31.06784958     57.54427811      4.06878447
    H     10.21564366     26.54215456     68.86997350      0.89498427
    C     14.26327283     29.65447989     57.98898350      4.06878819
    C     12.84622023     31.03144134     56.57655584      4.03834176
    H     10.93946129     31.61396418     57.37055224      0.90075195
    C     14.05183151     30.32107758     56.79996291      4.03833899
    H     15.18966733     29.11027250     58.15814024      0.90074922
    H     12.69910348     31.55020667     55.63324328      0.89498425
    H     14.81313183     30.30437493     56.02488799      0.89498764
   36
Geometry Step: 80
    C     10.43849317     29.08200811     63.25459697      3.96631099
    C      9.45361074     29.09705931     64.26657535      4.06019275
    C     11.67502616     28.35437226     63.48408945      3.96632629
    C     10.25450437     29.75396183     62.02826581      4.04489531
    C      9.64223967     28.42545769     65.48796245      3.94533719
    H      8.52673570     29.64274087     64.09511475      0.90180858
    C     11.85738653     27.68214724     64.71253292      4.06019045
    C     12.66023733     28.33838191     62.47494283      4.04489532
    C     11.23971466     29.73796964     61.01911847      3.96632629
    H      9.32749741     30.29946785     61.85594103      0.90205349
    C      8.65147409     28.43787615     66.51423010      4.06878814
    C     10.87198858     27.70132426     65.71600904      3.94533927
    H     12.78425576     27.13677025     64.88491906      0.90181915
    H     13.58724518     27.79287762     62.64726820      0.90205349
    C     12.47624952     29.01033744     61.24861247      3.96631099
    C     11.05735316     30.41019285     59.79067432      4.06019044
    C      8.86291214     27.77127678     67.70325025      4.03833901
    H      7.72508094     28.98208552     66.34507275      0.90074926
    C     11.05086078     27.02450428     66.95893740      4.06878454
    C     13.46113419     28.99529088     60.23663607      4.06019277
    C     12.04275408     30.39102210     58.78720120      3.94533932
    H     10.13048069     30.95556325     59.61828478      0.90181916
    C     10.06852398     27.06091468     67.92665922      4.03834175
    H      8.10160922     27.78797698     68.47832284      0.89498759
    H     11.97528350     26.47839119     67.13266746      0.90075195
    H     14.38801140     28.44961354     60.40809844      0.90180856
    C     13.27250521     29.66689304     59.01524923      3.94533715
    C     11.86388286     31.06784659     57.54427533      4.06878451
    H     10.21564072     26.54215201     68.86997326      0.89498429
    C     14.26327164     29.65447822     57.98898232      4.06878816
    C     12.84622146     31.03144180     56.57655518      4.03834174
    H     10.93945966     31.61395944     57.37054724      0.90075198
    C     14.05183322     30.32107923     56.79996312      4.03833901
    H     15.18966551     29.11026991     58.15813904      0.90074924
    H     12.69910640     31.55020920     55.63324350      0.89498427
    H     14.81313601     30.30438017     56.02489040      0.89498760
   36
Geometry Step: 81
    C     10.43849542     29.08200792     63.25459819      3.96631116
    C      9.45361266     29.09705938     64.26657617      4.06019270
    C     11.67502801     28.35437106     63.48408996      3.96632613
    C     10.25450472     29.75396245     62.02826764      4.04489530
    C      9.64224190     28.42546015     65.48796447      3.94533715
    H      8.52673641     29.64273778     64.09511208      0.90180865
    C     11.85738782     27.68214592     64.71253388      4.06019045
    C     12.66023698     28.33838128     62.47494101      4.04489531
    C     11.23971282     29.73797086     61.01911797      3.96632613
    H      9.32749673     30.29946797     61.85594708      0.90205353
    C      8.65147526     28.43787780     66.51423124      4.06878811
    C     10.87199080     27.70132670     65.71601123      3.94533930
    H     12.78425426     27.13676393     64.88492020      0.90181905
    H     13.58724585     27.79287746     62.64726215      0.90205353
    C     12.47624727     29.01033763     61.24861125      3.96631115
    C     11.05735188     30.41019420     59.79067337      4.06019045
    C      8.86291047     27.77127515     67.70325001      4.03833903
    H      7.72508274     28.98208811     66.34507392      0.90074928
    C     11.05086186     27.02450722     66.95894015      4.06878457
    C     13.46113225     28.99529080     60.23663525      4.06019272
    C     12.04275185     30.39101967     58.78719900      3.94533936
    H     10.13048222     30.95556964     59.61828369      0.90181906
    C     10.06852276     27.06091422     67.92665987      4.03834173
    H      8.10160513     27.78797180     68.47832043      0.89498755
    H     11.97528515     26.47839589     67.13267237      0.90075198
    H     14.38801067     28.44961659     60.40810109      0.90180863
    C     13.27250297     29.66689056     59.01524719      3.94533712
    C     11.86388177     31.06784364     57.54427255      4.06878454
    H     10.21563781     26.54214947     68.86997302      0.89498431
    C     14.26327047     29.65447656     57.98898119      4.06878813
    C     12.84622268     31.03144225     56.57655452      4.03834172
    H     10.93945800     31.61395474     57.37054227      0.90075201
    C     14.05183490     30.32108086     56.79996336      4.03833903
    H     15.18966372     29.11026731     58.15813787      0.90074926
    H     12.69910929     31.55021171     55.63324372      0.89498429
    H     14.81314013     30.30438538     56.02489282      0.89498757
   36
Geometry Step: 82
    C     10.43849763     29.08200774     63.25459939      3.96631132
    C      9.45361459     29.09705945     64.26657698      4.06019266
    C     11.67502983     28.35436988     63.48409047      3.96632597
    C     10.25450506     29.75396309     62.02826943      4.04489529
    C      9.64224410     28.42546258     65.48796647      3.94533712
    H      8.52673713     29.64273474     64.09510950      0.90180872
    C     11.85738908     27.68214464     64.71253485      4.06019045
    C     12.66023664     28.33838063     62.47493923      4.04489530
    C     11.23971101     29.73797205     61.01911748      3.96632597
    H      9.32749607     30.29946814     61.85595304      0.90205356
    C      8.65147640     28.43787944     66.51423234      4.06878809
    C     10.87199299     27.70132911     65.71601342      3.94533934
    H     12.78425278     27.13675771     64.88492127      0.90181896
    H     13.58724650     27.79287726     62.64725619      0.90205356
    C     12.47624506     29.01033780     61.24861006      3.96631131
    C     11.05735062     30.41019551     59.79067243      4.06019045
    C      8.86290883     27.77127354     67.70324976      4.03833906
    H      7.72508451     28.98209070     66.34507507      0.90074930
    C     11.05086295     27.02451013     66.95894290      4.06878460
    C     13.46113031     28.99529070     60.23663443      4.06019267
    C     12.04274965     30.39101727     58.78719682      3.94533939
    H     10.13048374     30.95557592     59.61828267      0.90181897
    C     10.06852157     27.06091375     67.92666052      4.03834171
    H      8.10160107     27.78796666     68.47831802      0.89498752
    H     11.97528682     26.47840056     67.13267724      0.90075201
    H     14.38800993     28.44961960     60.40810366      0.90180870
    C     13.27250076     29.66688812     59.01524519      3.94533709
    C     11.86388067     31.06784073     57.54426979      4.06878458
    H     10.21563494     26.54214694     68.86997279      0.89498433
    C     14.26326932     29.65447491     57.98898008      4.06878811
    C     12.84622388     31.03144271     56.57655387      4.03834170
    H     10.93945633     31.61395006     57.37053733      0.90075203
    C     14.05183656     30.32108248     56.79996362      4.03833905
    H     15.18966196     29.11026473     58.15813673      0.90074928
    H     12.69911215     31.55021422     55.63324393      0.89498431
    H     14.81314421     30.30439055     56.02489525      0.89498753
   36
Geometry Step: 83
    C     10.43849982     29.08200757     63.25460055      3.96631148
    C      9.45361651     29.09705954     64.26657778      4.06019261
    C     11.67503160     28.35436872     63.48409097      3.96632582
    C     10.25450540     29.75396373     62.02827117      4.04489528
    C      9.64224628     28.42546498     65.48796845      3.94533710
    H      8.52673785     29.64273174     64.09510701      0.90180879
    C     11.85739032     27.68214340     64.71253581      4.06019046
    C     12.66023631     28.33837998     62.47493749      4.04489529
    C     11.23970925     29.73797322     61.01911699      3.96632582
    H      9.32749543     30.29946834     61.85595890      0.90205359
    C      8.65147753     28.43788106     66.51423341      4.06878806
    C     10.87199516     27.70133148     65.71601560      3.94533937
    H     12.78425131     27.13675160     64.88492228      0.90181887
    H     13.58724714     27.79287703     62.64725033      0.90205359
    C     12.47624287     29.01033796     61.24860890      3.96631147
    C     11.05734940     30.41019678     59.79067149      4.06019045
    C      8.86290721     27.77127195     67.70324948      4.03833907
    H      7.72508625     28.98209328     66.34507618      0.90074931
    C     11.05086404     27.02451299     66.95894563      4.06878463
    C     13.46112838     28.99529060     60.23663363      4.06019263
    C     12.04274747     30.39101491     58.78719464      3.94533942
    H     10.13048523     30.95558210     59.61828171      0.90181889
    C     10.06852038     27.06091328     67.92666117      4.03834169
    H      8.10159706     27.78796155     68.47831560      0.89498749
    H     11.97528850     26.47840521     67.13268209      0.90075203
    H     14.38800918     28.44962257     60.40810614      0.90180877
    C     13.27249856     29.66688571     59.01524321      3.94533706
    C     11.86387958     31.06783786     57.54426705      4.06878461
    H     10.21563208     26.54214442     68.86997257      0.89498434
    C     14.26326819     29.65447328     57.98897901      4.06878808
    C     12.84622506     31.03144317     56.57655322      4.03834169
    H     10.93945465     31.61394541     57.37053243      0.90075206
    C     14.05183819     30.32108409     56.79996390      4.03833907
    H     15.18966021     29.11026215     58.15813563      0.90074929
    H     12.69911499     31.55021671     55.63324414      0.89498432
    H     14.81314824     30.30439569     56.02489769      0.89498750
   36
Geometry Step: 84
    C     10.43850197     29.08200742     63.25460169      3.96631163
    C      9.45361842     29.09705963     64.26657857      4.06019257
    C     11.67503335     28.35436758     63.48409147      3.96632567
    C     10.25450573     29.75396437     62.02827288      4.04489527
    C      9.64224845     28.42546735     65.48797040      3.94533707
    H      8.52673858     29.64272878     64.09510460      0.90180886
    C     11.85739154     27.68214219     64.71253676      4.06019046
    C     12.66023597     28.33837933     62.47493579      4.04489528
    C     11.23970751     29.73797437     61.01911650      3.96632567
    H      9.32749480     30.29946858     61.85596466      0.90205362
    C      8.65147864     28.43788267     66.51423445      4.06878804
    C     10.87199731     27.70133382     65.71601776      3.94533940
    H     12.78424985     27.13674559     64.88492323      0.90181879
    H     13.58724775     27.79287676     62.64724457      0.90205362
    C     12.47624072     29.01033811     61.24860777      3.96631162
    C     11.05734819     30.41019802     59.79067056      4.06019045
    C      8.86290560     27.77127036     67.70324919      4.03833909
    H      7.72508797     28.98209585     66.34507726      0.90074933
    C     11.05086513     27.02451582     66.95894835      4.06878466
    C     13.46112645     28.99529049     60.23663282      4.06019258
    C     12.04274532     30.39101257     58.78719247      3.94533945
    H     10.13048671     30.95558818     59.61828081      0.90181880
    C     10.06851922     27.06091281     67.92666180      4.03834168
    H      8.10159309     27.78795647     68.47831317      0.89498746
    H     11.97529020     26.47840982     67.13268691      0.90075205
    H     14.38800844     28.44962550     60.40810853      0.90180884
    C     13.27249638     29.66688332     59.01524125      3.94533704
    C     11.86387849     31.06783502     57.54426432      4.06878464
    H     10.21562926     26.54214191     68.86997235      0.89498436
    C     14.26326708     29.65447167     57.98897797      4.06878805
    C     12.84622623     31.03144363     56.57655257      4.03834167
    H     10.93945295     31.61394079     57.37052755      0.90075208
    C     14.05183980     30.32108567     56.79996420      4.03833909
    H     15.18965849     29.11025958     58.15813457      0.90074931
    H     12.69911780     31.55021919     55.63324435      0.89498434
    H     14.81315223     30.30440081     56.02490013      0.89498747
   36
Geometry Step: 85
    C     10.43850409     29.08200729     63.25460280      3.96631178
    C      9.45362033     29.09705974     64.26657936      4.06019253
    C     11.67503506     28.35436647     63.48409196      3.96632552
    C     10.25450606     29.75396502     62.02827455      4.04489525
    C      9.64225059     28.42546970     65.48797232      3.94533704
    H      8.52673931     29.64272587     64.09510227      0.90180893
    C     11.85739273     27.68214102     64.71253771      4.06019046
    C     12.66023565     28.33837867     62.47493412      4.04489526
    C     11.23970581     29.73797550     61.01911602      3.96632552
    H      9.32749420     30.29946886     61.85597033      0.90205365
    C      8.65147973     28.43788427     66.51423546      4.06878801
    C     10.87199944     27.70133613     65.71601991      3.94533942
    H     12.78424842     27.13673968     64.88492413      0.90181871
    H     13.58724834     27.79287645     62.64723890      0.90205365
    C     12.47623859     29.01033824     61.24860667      3.96631177
    C     11.05734701     30.41019922     59.79066963      4.06019046
    C      8.86290402     27.77126880     67.70324888      4.03833911
    H      7.72508967     28.98209842     66.34507830      0.90074934
    C     11.05086622     27.02451862     66.95895104      4.06878469
    C     13.46112453     28.99529037     60.23663203      4.06019254
    C     12.04274319     30.39101027     58.78719032      3.94533947
    H     10.13048817     30.95559416     59.61827997      0.90181872
    C     10.06851806     27.06091234     67.92666244      4.03834166
    H      8.10158916     27.78795142     68.47831073      0.89498743
    H     11.97529191     26.47841440     67.13269170      0.90075208
    H     14.38800769     28.44962838     60.40811085      0.90180891
    C     13.27249422     29.66688097     59.01523933      3.94533701
    C     11.86387739     31.06783222     57.54426161      4.06878466
    H     10.21562646     26.54213941     68.86997213      0.89498437
    C     14.26326599     29.65447007     57.98897696      4.06878803
    C     12.84622738     31.03144409     56.57655193      4.03834166
    H     10.93945125     31.61393620     57.37052271      0.90075210
    C     14.05184139     30.32108725     56.79996452      4.03833910
    H     15.18965679     29.11025702     58.15813353      0.90074932
    H     12.69912058     31.55022166     55.63324455      0.89498435
    H     14.81315619     30.30440588     56.02490258      0.89498745
   36
Geometry Step: 86
    C     10.43850619     29.08200716     63.25460388      3.96631193
    C      9.45362222     29.09705985     64.26658015      4.06019249
    C     11.67503673     28.35436537     63.48409245      3.96632538
    C     10.25450639     29.75396568     62.02827619      4.04489524
    C      9.64225272     28.42547201     65.48797421      3.94533701
    H      8.52674004     29.64272300     64.09510002      0.90180901
    C     11.85739390     27.68213988     64.71253865      4.06019047
    C     12.66023532     28.33837801     62.47493248      4.04489525
    C     11.23970414     29.73797661     61.01911555      3.96632538
    H      9.32749361     30.29946917     61.85597590      0.90205368
    C      8.65148080     28.43788585     66.51423645      4.06878799
    C     10.87200154     27.70133841     65.71602205      3.94533945
    H     12.78424700     27.13673387     64.88492497      0.90181863
    H     13.58724892     27.79287611     62.64723332      0.90205368
    C     12.47623650     29.01033835     61.24860559      3.96631192
    C     11.05734585     30.41020039     59.79066871      4.06019046
    C      8.86290246     27.77126724     67.70324855      4.03833913
    H      7.72509136     28.98210097     66.34507932      0.90074935
    C     11.05086731     27.02452139     66.95895372      4.06878472
    C     13.46112262     28.99529024     60.23663123      4.06019250
    C     12.04274108     30.39100800     58.78718818      3.94533950
    H     10.13048962     30.95560004     59.61827917      0.90181864
    C     10.06851693     27.06091187     67.92666306      4.03834165
    H      8.10158527     27.78794640     68.47830829      0.89498741
    H     11.97529362     26.47841895     67.13269646      0.90075210
    H     14.38800694     28.44963121     60.40811309      0.90180899
    C     13.27249208     29.66687865     59.01523742      3.94533699
    C     11.86387629     31.06782945     57.54425891      4.06878469
    H     10.21562369     26.54213693     68.86997191      0.89498439
    C     14.26326491     29.65446848     57.98897598      4.06878801
    C     12.84622852     31.03144454     56.57655130      4.03834164
    H     10.93944953     31.61393164     57.37051790      0.90075212
    C     14.05184297     30.32108881     56.79996485      4.03833912
    H     15.18965511     29.11025447     58.15813253      0.90074933
    H     12.69912335     31.55022411     55.63324475      0.89498437
    H     14.81316010     30.30441093     56.02490504      0.89498742
   36
Geometry Step: 87
    C     10.43850825     29.08200706     63.25460494      3.96631207
    C      9.45362411     29.09705997     64.26658093      4.06019245
    C     11.67503838     28.35436429     63.48409293      3.96632524
    C     10.25450671     29.75396634     62.02827779      4.04489523
    C      9.64225484     28.42547429     65.48797609      3.94533699
    H      8.52674077     29.64272018     64.09509785      0.90180908
    C     11.85739506     27.68213877     64.71253958      4.06019047
    C     12.66023500     28.33837734     62.47493088      4.04489524
    C     11.23970251     29.73797770     61.01911508      3.96632524
    H      9.32749305     30.29946952     61.85598139      0.90205370
    C      8.65148186     28.43788741     66.51423741      4.06878797
    C     10.87200363     27.70134067     65.71602418      3.94533947
    H     12.78424561     27.13672815     64.88492577      0.90181855
    H     13.58724947     27.79287573     62.64722784      0.90205370
    C     12.47623444     29.01033845     61.24860453      3.96631206
    C     11.05734471     30.41020153     59.79066780      4.06019046
    C      8.86290091     27.77126569     67.70324820      4.03833914
    H      7.72509302     28.98210351     66.34508030      0.90074936
    C     11.05086840     27.02452412     66.95895639      4.06878474
    C     13.46112073     28.99529011     60.23663045      4.06019247
    C     12.04273899     30.39100576     58.78718606      3.94533952
    H     10.13049104     30.95560582     59.61827843      0.90181856
    C     10.06851580     27.06091140     67.92666368      4.03834163
    H      8.10158142     27.78794142     68.47830585      0.89498738
    H     11.97529535     26.47842347     67.13270119      0.90075211
    H     14.38800618     28.44963400     60.40811525      0.90180906
    C     13.27248995     29.66687636     59.01523554      3.94533696
    C     11.86387519     31.06782671     57.54425624      4.06878472
    H     10.21562094     26.54213447     68.86997170      0.89498440
    C     14.26326385     29.65446691     57.98897502      4.06878799
    C     12.84622965     31.03144500     56.57655067      4.03834163
    H     10.93944781     31.61392711     57.37051312      0.90075214
    C     14.05184452     30.32109037     56.79996520      4.03833913
    H     15.18965345     29.11025193     58.15813155      0.90074935
    H     12.69912609     31.55022655     55.63324495      0.89498438
    H     14.81316397     30.30441594     56.02490750      0.89498740
   36
Geometry Step: 88
    C     10.43851028     29.08200696     63.25460598      3.96631221
    C      9.45362598     29.09706010     64.26658170      4.06019241
    C     11.67503999     28.35436324     63.48409340      3.96632511
    C     10.25450703     29.75396701     62.02827937      4.04489521
    C      9.64225693     28.42547655     65.48797794      3.94533697
    H      8.52674150     29.64271741     64.09509574      0.90180915
    C     11.85739619     27.68213770     64.71254050      4.06019047
    C     12.66023469     28.33837667     62.47492931      4.04489523
    C     11.23970090     29.73797877     61.01911462      3.96632510
    H      9.32749251     30.29946989     61.85598678      0.90205373
    C      8.65148290     28.43788896     66.51423835      4.06878795
    C     10.87200569     27.70134289     65.71602629      3.94533949
    H     12.78424423     27.13672253     64.88492651      0.90181848
    H     13.58725000     27.79287533     62.64722244      0.90205373
    C     12.47623240     29.01033854     61.24860349      3.96631220
    C     11.05734359     30.41020264     59.79066689      4.06019047
    C      8.86289939     27.77126415     67.70324784      4.03833916
    H      7.72509467     28.98210604     66.34508126      0.90074937
    C     11.05086950     27.02452682     66.95895903      4.06878477
    C     13.46111884     28.99528996     60.23662966      4.06019243
    C     12.04273692     30.39100354     58.78718395      3.94533954
    H     10.13049245     30.95561152     59.61827773      0.90181849
    C     10.06851469     27.06091093     67.92666429      4.03834162
    H      8.10157761     27.78793647     68.47830341      0.89498736
    H     11.97529708     26.47842797     67.13270589      0.90075213
    H     14.38800543     28.44963674     60.40811734      0.90180913
    C     13.27248785     29.66687409     59.01523369      3.94533694
    C     11.86387410     31.06782400     57.54425358      4.06878474
    H     10.21561821     26.54213202     68.86997149      0.89498441
    C     14.26326280     29.65446536     57.98897408      4.06878796
    C     12.84623076     31.03144546     56.57655005      4.03834162
    H     10.93944607     31.61392260     57.37050836      0.90075215
    C     14.05184606     30.32109191     56.79996556      4.03833915
    H     15.18965180     29.11024940     58.15813061      0.90074936
    H     12.69912880     31.55022897     55.63324514      0.89498439
    H     14.81316781     30.30442092     56.02490996      0.89498737
   36
Geometry Step: 89
    C     10.43851228     29.08200688     63.25460700      3.96631235
    C      9.45362784     29.09706024     64.26658248      4.06019238
    C     11.67504158     28.35436220     63.48409387      3.96632497
    C     10.25450734     29.75396768     62.02828092      4.04489520
    C      9.64225901     28.42547878     65.48797977      3.94533694
    H      8.52674223     29.64271468     64.09509371      0.90180922
    C     11.85739731     27.68213664     64.71254141      4.06019048
    C     12.66023437     28.33837599     62.47492776      4.04489521
    C     11.23969932     29.73797982     61.01911416      3.96632497
    H      9.32749199     30.29947030     61.85599209      0.90205375
    C      8.65148394     28.43789049     66.51423926      4.06878793
    C     10.87200774     27.70134509     65.71602838      3.94533951
    H     12.78424287     27.13671699     64.88492721      0.90181841
    H     13.58725051     27.79287489     62.64721713      0.90205375
    C     12.47623040     29.01033861     61.24860247      3.96631234
    C     11.05734248     30.41020372     59.79066600      4.06019047
    C      8.86289788     27.77126263     67.70324747      4.03833917
    H      7.72509630     28.98210856     66.34508218      0.90074938
    C     11.05087059     27.02452949     66.95896165      4.06878479
    C     13.46111697     28.99528981     60.23662888      4.06019239
    C     12.04273486     30.39100135     58.78718185      3.94533956
    H     10.13049383     30.95561711     59.61827708      0.90181842
    C     10.06851359     27.06091046     67.92666489      4.03834161
    H      8.10157383     27.78793155     68.47830096      0.89498734
    H     11.97529881     26.47843244     67.13271056      0.90075215
    H     14.38800468     28.44963944     60.40811936      0.90180920
    C     13.27248575     29.66687185     59.01523185      3.94533692
    C     11.86387300     31.06782132     57.54425095      4.06878477
    H     10.21561550     26.54212958     68.86997128      0.89498442
    C     14.26326176     29.65446382     57.98897317      4.06878794
    C     12.84623186     31.03144592     56.57654945      4.03834161
    H     10.93944434     31.61391812     57.37050364      0.90075217
    C     14.05184758     30.32109345     56.79996594      4.03833916
    H     15.18965016     29.11024689     58.15812969      0.90074937
    H     12.69913150     31.55023137     55.63324534      0.89498440
    H     14.81317161     30.30442587     56.02491242      0.89498735
   36
Geometry Step: 90
    C     10.43851426     29.08200682     63.25460800      3.96631248
    C      9.45362969     29.09706038     64.26658325      4.06019235
    C     11.67504313     28.35436119     63.48409433      3.96632484
    C     10.25450765     29.75396835     62.02828244      4.04489519
    C      9.64226108     28.42548099     65.48798157      3.94533692
    H      8.52674295     29.64271200     64.09509174      0.90180929
    C     11.85739841     27.68213562     64.71254231      4.06019048
    C     12.66023406     28.33837531     62.47492625      4.04489520
    C     11.23969778     29.73798085     61.01911371      3.96632484
    H      9.32749149     30.29947074     61.85599731      0.90205377
    C      8.65148496     28.43789201     66.51424015      4.06878791
    C     10.87200977     27.70134727     65.71603045      3.94533953
    H     12.78424154     27.13671155     64.88492787      0.90181834
    H     13.58725100     27.79287443     62.64721191      0.90205377
    C     12.47622843     29.01033867     61.24860147      3.96631247
    C     11.05734140     30.41020478     59.79066512      4.06019047
    C      8.86289638     27.77126111     67.70324708      4.03833918
    H      7.72509792     28.98211105     66.34508308      0.90074939
    C     11.05087169     27.02453214     66.95896426      4.06878481
    C     13.46111511     28.99528964     60.23662810      4.06019236
    C     12.04273283     30.39099918     58.78717978      3.94533958
    H     10.13049519     30.95562262     59.61827647      0.90181835
    C     10.06851251     27.06090999     67.92666548      4.03834159
    H      8.10157008     27.78792666     68.47829852      0.89498732
    H     11.97530056     26.47843688     67.13271520      0.90075216
    H     14.38800394     28.44964209     60.40812131      0.90180927
    C     13.27248368     29.66686964     59.01523004      3.94533689
    C     11.86387190     31.06781867     57.54424833      4.06878479
    H     10.21561282     26.54212717     68.86997107      0.89498443
    C     14.26326074     29.65446230     57.98897228      4.06878792
    C     12.84623294     31.03144638     56.57654885      4.03834160
    H     10.93944259     31.61391367     57.37049896      0.90075218
    C     14.05184908     30.32109497     56.79996634      4.03833917
    H     15.18964854     29.11024439     58.15812880      0.90074937
    H     12.69913417     31.55023376     55.63324553      0.89498442
    H     14.81317538     30.30443079     56.02491488      0.89498733
   36
Geometry Step: 91
    C     10.43851620     29.08200677     63.25460899      3.96631261
    C      9.45363152     29.09706054     64.26658401      4.06019231
    C     11.67504466     28.35436019     63.48409478      3.96632472
    C     10.25450796     29.75396903     62.02828394      4.04489517
    C      9.64226313     28.42548317     65.48798335      3.94533690
    H      8.52674368     29.64270937     64.09508984      0.90180936
    C     11.85739949     27.68213462     64.71254320      4.06019048
    C     12.66023375     28.33837463     62.47492475      4.04489519
    C     11.23969626     29.73798185     61.01911327      3.96632472
    H      9.32749101     30.29947120     61.85600245      0.90205379
    C      8.65148597     28.43789351     66.51424102      4.06878789
    C     10.87201178     27.70134942     65.71603251      3.94533955
    H     12.78424022     27.13670619     64.88492848      0.90181827
    H     13.58725147     27.79287393     62.64720677      0.90205379
    C     12.47622648     29.01033872     61.24860049      3.96631260
    C     11.05734032     30.41020580     59.79066425      4.06019047
    C      8.86289490     27.77125959     67.70324668      4.03833920
    H      7.72509953     28.98211354     66.34508396      0.90074940
    C     11.05087278     27.02453476     66.95896684      4.06878484
    C     13.46111326     28.99528947     60.23662733      4.06019233
    C     12.04273081     30.39099704     58.78717772      3.94533960
    H     10.13049653     30.95562805     59.61827591      0.90181828
    C     10.06851143     27.06090952     67.92666606      4.03834158
    H      8.10156637     27.78792180     68.47829607      0.89498730
    H     11.97530230     26.47844129     67.13271982      0.90075217
    H     14.38800319     28.44964469     60.40812320      0.90180934
    C     13.27248162     29.66686745     59.01522825      3.94533687
    C     11.86387080     31.06781605     57.54424574      4.06878481
    H     10.21561016     26.54212477     68.86997086      0.89498445
    C     14.26325972     29.65446080     57.98897141      4.06878790
    C     12.84623402     31.03144684     56.57654826      4.03834158
    H     10.93944085     31.61390925     57.37049430      0.90075220
    C     14.05185057     30.32109649     56.79996674      4.03833919
    H     15.18964693     29.11024191     58.15812794      0.90074938
    H     12.69913682     31.55023614     55.63324573      0.89498443
    H     14.81317911     30.30443567     56.02491734      0.89498731
   36
Geometry Step: 92
    C     10.43851812     29.08200673     63.25460995      3.96631274
    C      9.45363334     29.09706070     64.26658478      4.06019228
    C     11.67504616     28.35435921     63.48409522      3.96632459
    C     10.25450827     29.75396971     62.02828541      4.04489516
    C      9.64226516     28.42548532     65.48798512      3.94533688
    H      8.52674440     29.64270678     64.09508800      0.90180943
    C     11.85740056     27.68213365     64.71254407      4.06019048
    C     12.66023345     28.33837394     62.47492329      4.04489517
    C     11.23969476     29.73798284     61.01911284      3.96632459
    H      9.32749056     30.29947169     61.85600750      0.90205381
    C      8.65148697     28.43789499     66.51424187      4.06878787
    C     10.87201378     27.70135155     65.71603456      3.94533957
    H     12.78423893     27.13670092     64.88492906      0.90181821
    H     13.58725191     27.79287342     62.64720171      0.90205381
    C     12.47622456     29.01033875     61.24859953      3.96631273
    C     11.05733927     30.41020681     59.79066339      4.06019048
    C      8.86289344     27.77125809     67.70324627      4.03833921
    H      7.72510113     28.98211601     66.34508480      0.90074941
    C     11.05087388     27.02453735     66.95896940      4.06878486
    C     13.46111143     28.99528929     60.23662656      4.06019230
    C     12.04272881     30.39099492     58.78717567      3.94533961
    H     10.13049785     30.95563338     59.61827538      0.90181822
    C     10.06851037     27.06090905     67.92666664      4.03834157
    H      8.10156269     27.78791698     68.47829363      0.89498728
    H     11.97530405     26.47844568     67.13272440      0.90075219
    H     14.38800244     28.44964725     60.40812502      0.90180941
    C     13.27247957     29.66686529     59.01522649      3.94533685
    C     11.86386970     31.06781345     57.54424316      4.06878484
    H     10.21560752     26.54212238     68.86997065      0.89498446
    C     14.26325872     29.65445931     57.98897056      4.06878789
    C     12.84623508     31.03144730     56.57654768      4.03834157
    H     10.93943910     31.61390485     57.37048967      0.90075221
    C     14.05185204     30.32109800     56.79996716      4.03833920
    H     15.18964534     29.11023945     58.15812710      0.90074939
    H     12.69913945     31.55023849     55.63324592      0.89498444
    H     14.81318282     30.30444052     56.02491980      0.89498729
   36
Geometry Step: 93
    C     10.43852001     29.08200670     63.25461091      3.96631286
    C      9.45363515     29.09706087     64.26658554      4.06019225
    C     11.67504763     28.35435825     63.48409566      3.96632447
    C     10.25450858     29.75397040     62.02828685      4.04489515
    C      9.64226718     28.42548745     65.48798686      3.94533686
    H      8.52674513     29.64270424     64.09508623      0.90180950
    C     11.85740161     27.68213270     64.71254494      4.06019049
    C     12.66023314     28.33837326     62.47492184      4.04489516
    C     11.23969330     29.73798382     61.01911241      3.96632447
    H      9.32749012     30.29947221     61.85601247      0.90205383
    C      8.65148795     28.43789646     66.51424270      4.06878785
    C     10.87201576     27.70135365     65.71603658      3.94533958
    H     12.78423766     27.13669574     64.88492960      0.90181814
    H     13.58725234     27.79287287     62.64719674      0.90205383
    C     12.47622267     29.01033877     61.24859858      3.96631285
    C     11.05733823     30.41020779     59.79066254      4.06019048
    C      8.86289199     27.77125659     67.70324584      4.03833922
    H      7.72510271     28.98211846     66.34508563      0.90074942
    C     11.05087497     27.02453992     66.95897194      4.06878488
    C     13.46110961     28.99528910     60.23662579      4.06019227
    C     12.04272683     30.39099283     58.78717365      3.94533963
    H     10.13049915     30.95563863     59.61827488      0.90181816
    C     10.06850932     27.06090857     67.92666720      4.03834156
    H      8.10155904     27.78791219     68.47829119      0.89498726
    H     11.97530581     26.47845004     67.13272895      0.90075220
    H     14.38800170     28.44964976     60.40812678      0.90180948
    C     13.27247754     29.66686315     59.01522474      3.94533684
    C     11.86386860     31.06781087     57.54424061      4.06878486
    H     10.21560490     26.54212002     68.86997044      0.89498447
    C     14.26325773     29.65445784     57.98896974      4.06878787
    C     12.84623613     31.03144776     56.57654711      4.03834156
    H     10.93943734     31.61390048     57.37048507      0.90075222
    C     14.05185350     30.32109951     56.79996758      4.03833921
    H     15.18964375     29.11023700     58.15812629      0.90074940
    H     12.69914207     31.55024083     55.63324612      0.89498445
    H     14.81318649     30.30444534     56.02492226      0.89498727
