   36
Geometry Step: 0
    C     10.43270000     29.07330000     63.24400000      3.95063095
    C      9.44840000     29.07820000     64.26310000      4.16409274
    C     11.67680000     28.34410000     63.47600000      3.94665482
    C     10.26210000     29.75340000     62.03090000      4.16258547
    C      9.64400000     28.41890000     65.46360000      3.94222162
    H      8.63410000     29.54580000     64.11830000      0.89350355
    C     11.84730000     27.66740000     64.70030000      4.16338967
    C     12.65260000     28.33900000     62.47230000      4.16258854
    C     11.23790000     29.74820000     61.02730000      3.94664173
    H      9.44850000     30.22580000     61.90020000      0.89361744
    C      8.65980000     28.43580000     66.50100000      4.12582084
    C     10.87470000     27.69460000     65.68990000      3.94319864
    H     12.64850000     27.17990000     64.85210000      0.89359064
    H     13.46620000     27.86650000     62.60300000      0.89363347
    C     12.48200000     29.01910000     61.25920000      3.95062713
    C     11.06750000     30.42490000     59.80290000      4.16338970
    C      8.87100000     27.79220000     67.67330000      4.10728510
    H      7.84510000     28.90460000     66.36460000      0.89536837
    C     11.04650000     27.03480000     66.94380000      4.12453021
    C     13.46640000     29.01420000     60.24010000      4.16408883
    C     12.04000000     30.39770000     58.81330000      3.94318655
    H     10.26630000     30.91250000     59.65110000      0.89361152
    C     10.08880000     27.07780000     67.90240000      4.10814948
    H      8.20450000     27.81550000     68.34950000      0.89483023
    H     11.84910000     26.55360000     67.10960000      0.89622174
    H     14.28070000     28.54650000     60.38490000      0.89350305
    C     13.27070000     29.67340000     59.03960000      3.94222308
    C     11.86820000     31.05760000     57.55940000      4.12452437
    H     10.22720000     26.63270000     68.73040000      0.89430843
    C     14.25500000     29.65660000     58.00220000      4.12580108
    C     12.82590000     31.01460000     56.60080000      4.10817797
    H     11.06560000     31.53880000     57.39360000      0.89621541
    C     14.04380000     30.30010000     56.82990000      4.10731150
    H     15.06970000     29.18770000     58.13860000      0.89537776
    H     12.68750000     31.45960000     55.77280000      0.89429154
    H     14.71030000     30.27690000     56.15380000      0.89480683
   36
Geometry Step: 1
    C     10.43888859     29.06972081     63.24632355      3.94964381
    C      9.48786493     29.05726637     64.26606894      4.13790247
    C     11.66963136     28.34798556     63.47428032      3.94796225
    C     10.29887493     29.73090496     62.03852729      4.13721495
    C      9.64749221     28.41621148     65.46592640      3.94731984
    H      8.59136872     29.57064333     64.11042107      0.91949356
    C     11.81027983     27.68990933     64.69307894      4.13755270
    C     12.61584410     28.36147924     62.46468822      4.13721537
    C     11.24507631     29.74433910     61.02896794      3.94794916
    H      9.40575689     30.25107495     61.89226191      0.91915816
    C      8.69869959     28.41498113     66.50356759      4.10192264
    C     10.87026583     27.69711219     65.68976378      3.94758909
    H     12.69091587     27.15445811     64.85999379      0.91926197
    H     13.50891932     27.84123704     62.61093188      0.91916097
    C     12.47583375     29.02265902     61.25689489      3.94964540
    C     11.10446946     30.40240247     59.81013970      4.13756023
    C      8.90637369     27.78756065     67.64485366      4.07664202
    H      7.80245160     28.92948594     66.35686807      0.92014939
    C     11.01145719     27.05681248     66.93366581      4.10171600
    C     13.42693650     29.03512177     60.23714616      4.13791389
    C     12.04444693     30.39519113     58.81342524      3.94759232
    H     10.22390874     30.93793015     59.64321168      0.91926259
    C     10.07691762     27.10123900     67.86392566      4.07678551
    H      8.16995674     27.81640036     68.38528861      0.91966434
    H     11.89134057     26.52862206     67.11777147      0.92047388
    H     14.32340581     28.52166973     60.39277529      0.91948595
    C     13.26723070     29.67609221     59.03725830      3.94731779
    C     11.90325438     31.03557895     57.56953240      4.10171405
    H     10.23389960     26.60968075     68.77361793      0.91955051
    C     14.21611313     29.67739588     57.99965405      4.10193071
    C     12.83780899     30.99113200     56.63930852      4.07677393
    H     11.02335938     31.56377793     57.38542962      0.92046948
    C     14.00836340     30.30476529     56.85836179      4.07663726
    H     15.11232379     29.16282646     58.14632904      0.92013979
    H     12.68079682     31.48262990     55.72955822      0.91955798
    H     14.74487272     30.27600227     56.11798226      0.91967007
   36
Geometry Step: 2
    C     10.45332762     29.06182119     63.24918632      3.94382122
    C      9.48538068     29.06002011     64.26254425      4.14393735
    C     11.65542380     28.35605587     63.47112702      3.94313670
    C     10.29475550     29.73243240     62.03895272      4.14230073
    C      9.66045452     28.40959190     65.46650559      3.93793834
    H      8.57338032     29.58151250     64.10656876      0.91915903
    C     11.81449299     27.68806703     64.69228740      4.14401651
    C     12.61995954     28.35994595     62.46427333      4.14229369
    C     11.25929345     29.73628260     61.03209082      3.94313413
    H      9.38750800     30.26222780     61.88801411      0.91890638
    C      8.69531412     28.42552538     66.48364116      4.10751546
    C     10.85787480     27.70493276     65.68686502      3.93789395
    H     12.70937837     27.14374080     64.86323925      0.91882155
    H     13.52716806     27.83008553     62.61517855      0.91891069
    C     12.46141973     29.03054599     61.25403173      3.94382424
    C     11.10025329     30.40424571     59.81092957      4.14401400
    C      8.89923525     27.78503295     67.65816963      4.08141416
    H      7.78467519     28.94001775     66.35343700      0.91852086
    C     11.02775291     27.05557357     66.91759621      4.10734072
    C     13.42939465     29.03236561     60.24068502      4.14393690
    C     12.05684040     30.38737511     58.81632193      3.93789894
    H     10.20544036     30.94864989     59.63996733      0.91882307
    C     10.07459905     27.09618445     67.87758246      4.08131695
    H      8.15645879     27.81647363     68.39995053      0.91759222
    H     11.90961197     26.51793283     67.12121827      0.91867341
    H     14.34138771     28.51080673     60.39662781      0.91916168
    C     13.25428810     29.68271294     59.03667419      3.93793931
    C     11.88695781     31.03680714     57.58561781      4.10734278
    H     10.23607910     26.60075981     68.79071912      0.91769436
    C     14.21947737     29.66684771     58.01958868      4.10751560
    C     12.84014232     30.99617994     56.62564003      4.08131176
    H     11.00509312     31.57446453     57.38198402      0.91866992
    C     14.01549735     30.30730418     56.84504171      4.08140927
    H     15.13009885     29.15229807     58.14976037      0.91851800
    H     12.67862025     31.49154897     55.71246271      0.91769825
    H     14.75836466     30.27593067     56.10331956      0.91759787
   36
Geometry Step: 3
    C     10.45350162     29.06288612     63.24882514      3.94340818
    C      9.47806467     29.06622602     64.25659129      4.14210892
    C     11.65685854     28.35506698     63.47014009      3.94317671
    C     10.28577747     29.73698451     62.03792799      4.14167792
    C      9.66256915     28.41216154     65.45915308      3.93737287
    H      8.55380714     29.59374557     64.10176746      0.91975582
    C     11.82436742     27.68381280     64.69023883      4.14230481
    C     12.62894452     28.35538485     62.46529879      4.14167323
    C     11.25787154     29.73727621     61.03306618      3.94317867
    H      9.36742754     30.27469707     61.88283244      0.91978165
    C      8.68598618     28.43235085     66.47793693      4.10495110
    C     10.86018506     27.70685549     65.68094453      3.93721250
    H     12.73003774     27.13205414     64.86662848      0.91963012
    H     13.54725131     27.81761652     62.62036110      0.91978337
    C     12.46125224     29.02947741     61.25439333      3.94340906
    C     11.09037702     30.40850569     59.81296631      4.14230359
    C      8.88396346     27.79070923     67.66245075      4.08495872
    H      7.76307980     28.95383644     66.34709336      0.91989886
    C     11.03986454     27.04959427     66.91606205      4.10481495
    C     13.43669405     29.02615135     60.24664242      4.14210633
    C     12.05454590     30.38545255     58.82224251      3.93721346
    H     10.18476921     30.96034048     59.63657952      0.91962993
    C     10.08520209     27.08679333     67.88651137      4.08491478
    H      8.13821588     27.81665338     68.41963229      0.91704402
    H     11.93348988     26.50495011     67.12360151      0.91984469
    H     14.36094991     28.49858383     60.40143034      0.91976012
    C     13.25217474     29.68015244     59.04403392      3.93737377
    C     11.87485668     31.04277253     57.58715734      4.10481477
    H     10.23913365     26.58873548     68.81359373      0.91714211
    C     14.22878540     29.66001667     58.02528888      4.10494790
    C     12.82953796     31.00556732     56.61670493      4.08491548
    H     10.98122423     31.58744202     57.37960339      0.91984437
    C     14.03077741     30.30163669     56.84075948      4.08495950
    H     15.15169020     29.13848612     58.15610421      0.91990076
    H     12.67557064     31.50357101     55.68959648      0.91714235
    H     14.77659521     30.27575293     56.08363952      0.91704462
   36
Geometry Step: 4
    C     10.44804679     29.06910075     63.24430821      3.94499510
    C      9.46143832     29.07836923     64.24769282      4.13977127
    C     11.66666042     28.35042317     63.46751040      3.94506779
    C     10.26830563     29.74665092     62.03497556      4.13922314
    C      9.65663996     28.41982258     65.44969898      3.94032927
    H      8.52882392     29.61002471     64.09455800      0.91869174
    C     11.84413747     27.67397092     64.68891298      4.13973791
    C     12.64642928     28.34570753     62.46824251      4.13922266
    C     11.24808163     29.74192536     61.03569017      3.94507071
    H      9.34165765     30.29090689     61.87560798      0.91954049
    C      8.66747373     28.44103669     66.47762452      4.10447029
    C     10.87150726     27.70431662     65.67519033      3.94015948
    H     12.75710945     27.11724491     64.87051942      0.91889794
    H     13.57303160     27.80140424     62.62758861      0.91953851
    C     12.46670361     29.02326201     61.25891313      3.94499381
    C     11.07060922     30.41835425     59.81427805      4.13973583
    C      8.87454844     27.79252368     67.66870709      4.08109335
    H      7.73446320     28.97333494     66.33613830      0.92025465
    C     11.05611871     27.03745051     66.92280800      4.10446400
    C     13.45330771     29.01399449     60.25553470      4.13977074
    C     12.04323743     30.38799658     58.82800181      3.94015770
    H     10.15767863     30.97515477     59.63268979      0.91889873
    C     10.08940080     27.08070431     67.89511858      4.08095837
    H      8.11252297     27.81721271     68.44674411      0.92107000
    H     11.96705350     26.48777232     67.12463184      0.92012308
    H     14.38591693     28.48232006     60.40864299      0.91869353
    C     13.25810500     29.67250158     59.05350537      3.94032926
    C     11.85861589     31.05490080     57.58040823      4.10446373
    H     10.24388938     26.57172403     68.84539861      0.92115215
    C     14.24727886     29.65131839     58.02559149      4.10446985
    C     12.82534011     31.01164619     56.60809422      4.08095911
    H     10.94767893     31.60460775     57.37857941      0.92012386
    C     14.04019676     30.29983727     56.83450777      4.08109429
    H     15.18029613     29.11900079     58.16705972      0.92025739
    H     12.67082168     31.52058225     55.65780066      0.92115142
    H     14.80227296     30.27519581     56.05652562      0.92106884
   36
Geometry Step: 5
    C     10.44432618     29.07251558     63.24179564      3.94575531
    C      9.45289730     29.08422518     64.24420802      4.13937487
    C     11.67201284     28.34780909     63.46676978      3.94563489
    C     10.25850548     29.75254584     62.03286855      4.13912400
    C      9.65052664     28.42286133     65.44991695      3.94326788
    H      8.51963590     29.61672637     64.09067998      0.91775720
    C     11.85423844     27.66870239     64.68866728      4.13944864
    C     12.65623300     28.33980982     62.47034258      4.13912462
    C     11.24272824     29.74454203     61.03643447      3.94563596
    H      9.33253274     30.29681073     61.87256323      0.91803813
    C      8.65943188     28.44203310     66.48352147      4.10225618
    C     10.87703412     27.70063402     65.67749038      3.94312547
    H     12.76776598     27.11194264     64.87136285      0.91785860
    H     13.58216640     27.79549733     62.63063528      0.91803654
    C     12.47042115     29.01984781     61.26142368      3.94575308
    C     11.06050666     30.42362687     59.81452377      4.13944773
    C      8.87020807     27.79332713     67.67157315      4.07986897
    H      7.72454136     28.98091523     66.33056243      0.92124303
    C     11.05920094     27.03199294     66.93060297      4.10223807
    C     13.46184640     29.00813139     60.25901503      4.13937587
    C     12.03771202     30.39168594     58.82570423      3.94312459
    H     10.14701569     30.98045661     59.63184642      0.91785943
    C     10.09117769     27.07783335     67.89925634      4.07990970
    H      8.10571426     27.81725093     68.45427796      0.92196147
    H     11.97993588     26.48185155     67.12354836      0.92119301
    H     14.39510054     28.47562362     60.41252384      0.91775695
    C     13.26421947     29.66946709     59.05329051      3.94326816
    C     11.85553816     31.06035323     57.57260829      4.10223713
    H     10.24499708     26.56706319     68.85418308      0.92194531
    C     14.25531615     29.65031539     58.01969112      4.10225639
    C     12.82356162     31.01451335     56.60395590      4.07991009
    H     10.93480710     31.61052044     57.37966673      0.92119340
    C     14.04454000     30.29903754     56.83164804      4.07986933
    H     15.19021150     29.11142766     58.17263576      0.92124434
    H     12.66971737     31.52524527     55.64901823      0.92194455
    H     14.80907575     30.27515802     56.04898765      0.92196113
   36
Geometry Step: 6
    C     10.44142226     29.07453345     63.24053969      3.94673403
    C      9.44907598     29.08572462     64.24528433      4.13873273
    C     11.67511329     28.34614132     63.46697627      3.94648887
    C     10.25409168     29.75546425     62.03172085      4.13830863
    C      9.64676390     28.42361548     65.45231044      3.94460814
    H      8.51594679     29.62017131     64.08782328      0.91793974
    C     11.85722091     27.66602866     64.69079333      4.13882963
    C     12.66064621     28.33689023     62.47148811      4.13830871
    C     11.23962598     29.74621105     61.03623134      3.94648851
    H      9.32861317     30.29947701     61.87086085      0.91754771
    C      8.65471619     28.44174280     66.48895024      4.10219638
    C     10.87927454     27.69810128     65.68055244      3.94449742
    H     12.77297809     27.10987612     64.87103186      0.91791612
    H     13.58609355     27.79282912     62.63233851      0.91754736
    C     12.47332157     29.01783059     61.26267690      3.94673259
    C     11.05752257     30.42630425     59.81240111      4.13882974
    C      8.86946738     27.79204050     67.67502867      4.07919788
    H      7.72231423     28.98343177     66.32753812      0.92098722
    C     11.05966437     27.02872900     66.93696587      4.10219957
    C     13.46566789     29.00662912     60.25793298      4.13873409
    C     12.03547032     30.39422404     58.82264540      3.94449728
    H     10.14180111     30.98252087     59.63217706      0.91791661
    C     10.08956063     27.07707826     67.90243277      4.07914882
    H      8.10568725     27.81703063     68.45494011      0.92179713
    H     11.98402294     26.48057430     67.12187509      0.92102763
    H     14.39879047     28.47217945     60.41538340      0.91793877
    C     13.26798024     29.66871510     59.05089711      3.94460779
    C     11.85507558     31.06361525     57.56624245      4.10219920
    H     10.24468631     26.56680500     68.85487327      0.92184332
    C     14.26003189     29.65060226     58.01426167      4.10219789
    C     12.82517867     31.01526667     56.60077895      4.07914873
    H     10.93072566     31.61179218     57.38134210      0.92102711
    C     14.04528259     30.30032481     56.82819574      4.07919762
    H     15.19243556     29.10891486     58.17566053      0.92098669
    H     12.67003040     31.52550639     55.64832762      0.92184282
    H     14.80909975     30.27537801     56.04832153      0.92179752
   36
Geometry Step: 7
    C     10.43958842     29.07504922     63.24096995      3.94716760
    C      9.44683013     29.08580862     64.24789844      4.13863739
    C     11.67584351     28.34523375     63.46826529      3.94679532
    C     10.25151173     29.75740408     62.03089583      4.13828812
    C      9.64404603     28.42273262     65.45699128      3.94523579
    H      8.51430858     29.62262369     64.08503994      0.91821275
    C     11.85787157     27.66423086     64.69366431      4.13881979
    C     12.66322496     28.33494918     62.47231233      4.13828759
    C     11.23889366     29.74711979     61.03494498      3.94679417
    H      9.32598173     30.30140668     61.86930862      0.91719864
    C      8.65220025     28.44050564     66.49413993      4.10208271
    C     10.87901572     27.69588597     65.68547009      3.94512388
    H     12.77648544     27.10900175     64.87017785      0.91807731
    H     13.58873104     27.79089899     62.63389086      0.91719931
    C     12.47515324     29.01731396     61.26224383      3.94716712
    C     11.05687101     30.42810644     59.80953494      4.13882024
    C      8.86957187     27.79040725     67.67824930      4.07897596
    H      7.72265863     28.98422639     66.32542198      0.92079160
    C     11.05855340     27.02683089     66.94223743      4.10211551
    C     13.46791326     29.00654314     60.25531452      4.13863823
    C     12.03572651     30.39644502     58.81773147      3.94512424
    H     10.13829155     30.98339204     59.63303053      0.91807762
    C     10.08733204     27.07677155     67.90520116      4.07895315
    H      8.10785510     27.81647255     68.45396726      0.92130187
    H     11.98508767     26.48084325     67.12009706      0.92085444
    H     14.40043152     28.46972630     60.41816985      0.91821204
    C     13.27069548     29.66959954     59.04621414      3.94523522
    C     11.85618716     31.06551152     57.56096971      4.10211547
    H     10.24355163     26.56791508     68.85340607      0.92136893
    C     14.26254758     29.65183828     58.00907217      4.10208406
    C     12.82740814     31.01557233     56.59800977      4.07895301
    H     10.92966388     31.61151861     57.38312126      0.92085371
    C     14.04518015     30.30195749     56.82497636      4.07897562
    H     15.19209040     29.10812231     58.17777781      0.92079039
    H     12.67116757     31.52439992     55.64979369      0.92136863
    H     14.80692938     30.27593532     56.04928995      0.92130255
   36
Geometry Step: 8
    C     10.43862423     29.07474213     63.24225222      3.94738443
    C      9.44618839     29.08489184     64.25095540      4.13860617
    C     11.67528223     28.34480994     63.46986896      3.94701743
    C     10.25131144     29.75781702     62.03068750      4.13809350
    C      9.64306342     28.42130902     65.46093261      3.94498930
    H      8.51417621     29.62395464     64.08304215      0.91857859
    C     11.85662318     27.66347924     64.69652511      4.13880017
    C     12.66342455     28.33453482     62.47252093      4.13809256
    C     11.23945470     29.74754421     61.03334194      3.94701615
    H      9.32434192     30.30271935     61.86803878      0.91753543
    C      8.65154867     28.43953564     66.49680422      4.10220729
    C     10.87751046     27.69478586     65.68924852      3.94489411
    H     12.77825445     27.10897718     64.86933719      0.91842269
    H     13.59037358     27.78958762     62.63516021      0.91753637
    C     12.47611672     29.01761882     61.26096031      3.94738461
    C     11.05811907     30.42886229     59.80667815      4.13880068
    C      8.86978477     27.78910979     67.68061371      4.07913947
    H      7.72394813     28.98397779     66.32452837      0.92056097
    C     11.05744057     27.02617301     66.94486699      4.10224519
    C     13.46855410     29.00745845     60.25225544      4.13860640
    C     12.03723051     30.39754902     58.81395555      3.94489458
    H     10.13652003     30.98341382     59.63387077      0.91842273
    C     10.08569528     27.07655577     67.90712744      4.07903447
    H      8.10967207     27.81572219     68.45377940      0.92087304
    H     11.98449529     26.48160880     67.11903314      0.92062673
    H     14.40056610     28.46839461     60.42016990      0.91857841
    C     13.27167579     29.67102381     59.04227146      3.94498856
    C     11.85730052     31.06616801     57.55834050      4.10224532
    H     10.24219457     26.56879558     68.85268958      0.92099156
    C     14.26319852     29.65280875     58.00640822      4.10220832
    C     12.82904640     31.01578755     56.59608265      4.07903432
    H     10.93025653     31.61075015     57.38418522      0.92062625
    C     14.04496832     30.30325464     56.82261072      4.07913929
    H     15.19080158     29.10837158     58.17867300      0.92055998
    H     12.67252699     31.52352234     55.65050954      0.92099143
    H     14.80511061     30.27668472     56.04947417      0.92087349
   36
Geometry Step: 9
    C     10.43819227     29.07406889     63.24390655      3.94742008
    C      9.44613423     29.08391514     64.25350180      4.13863524
    C     11.67418099     28.34460073     63.47149173      3.94708719
    C     10.25191256     29.75767351     62.03068697      4.13811245
    C      9.64294895     28.41995881     65.46377295      3.94452964
    H      8.51480627     29.62464638     64.08166189      0.91878675
    C     11.85510504     27.66318701     64.69882447      4.13885335
    C     12.66282341     28.33467663     62.47252192      4.13811162
    C     11.24055690     29.74775355     61.03171903      3.94708627
    H      9.32341478     30.30362492     61.86688223      0.91797858
    C      8.65171605     28.43874231     66.49820878      4.10219615
    C     10.87575844     27.69430897     65.69191685      3.94443218
    H     12.77898706     27.10941231     64.86868764      0.91865189
    H     13.59130166     27.78868444     62.63631603      0.91797924
    C     12.47654884     29.01828911     61.25930538      3.94742041
    C     11.05963771     30.42915876     59.80438149      4.13885363
    C      8.86961397     27.78837494     67.68215041      4.07929571
    H      7.72511452     28.98348891     66.32428632      0.92047705
    C     11.05652802     27.02603804     66.94611036      4.10225787
    C     13.46860710     29.00843332     60.24970880      4.13863505
    C     12.03898236     30.39802860     58.81128910      3.94443255
    H     10.13578409     30.98297635     59.63452015      0.91865179
    C     10.08488740     27.07612708     67.90860200      4.07922456
    H      8.11039625     27.81480172     68.45515270      0.92073388
    H     11.98362611     26.48222336     67.11859724      0.92050126
    H     14.39993698     28.46770274     60.42155169      0.91878691
    C     13.27178892     29.67237429     59.03943067      3.94452906
    C     11.85821387     31.06630202     57.55709771      4.10225797
    H     10.24077284     26.56894075     68.85363349      0.92082648
    C     14.26303021     29.65360326     58.00500359      4.10219669
    C     12.82985551     31.01621602     56.59460739      4.07922443
    H     10.93112479     31.61013337     57.38462055      0.92050124
    C     14.04513957     30.30398930     56.82107200      4.07929569
    H     15.18963603     29.10886080     58.17891693      0.92047669
    H     12.67395120     31.52337958     55.64956573      0.92082639
    H     14.80438499     30.27760406     56.04809742      0.92073404
   36
Geometry Step: 10
    C     10.43787745     29.07353853     63.24531745      3.94745140
    C      9.44626758     29.08313493     64.25544173      4.13861205
    C     11.67326525     28.34437545     63.47286503      3.94718826
    C     10.25277678     29.75731702     62.03076492      4.13807195
    C      9.64297841     28.41897612     65.46564936      3.94413247
    H      8.51586739     29.62499669     64.08070877      0.91887703
    C     11.85377196     27.66309388     64.70060444      4.13881835
    C     12.66195947     28.33503128     62.47244411      4.13807137
    C     11.24147420     29.74797872     61.03034539      3.94718774
    H      9.32314012     30.30419928     61.86571659      0.91843085
    C      8.65197279     28.43811063     66.49913897      4.10213179
    C     10.87442258     27.69402542     65.69368944      3.94405765
    H     12.77908229     27.11014880     64.86826367      0.91878202
    H     13.59157693     27.78811306     62.63748097      0.91843107
    C     12.47686379     29.01881613     61.25789428      3.94745165
    C     11.06097171     30.42925629     59.80260372      4.13881844
    C      8.86902008     27.78785298     67.68364404      4.07943192
    H      7.72596710     28.98299413     66.32439589      0.92044810
    C     11.05578343     27.02593743     66.94702581      4.10219608
    C     13.46847268     29.00921132     60.24776904      4.13861170
    C     12.04031904     30.39831427     58.80951781      3.94405793
    H     10.13568471     30.98223755     59.63494426      0.91878184
    C     10.08451563     27.07542508     67.91015541      4.07932534
    H      8.11023232     27.81368348     68.45793868      0.92075063
    H     11.98289906     26.48255640     67.11861404      0.92045363
    H     14.39887580     28.46735280     60.42250597      0.91887728
    C     13.27175899     29.67335703     59.03755483      3.94413207
    C     11.85895926     31.06640219     57.55618266      4.10219607
    H     10.23921970     26.56842668     68.85610725      0.92084065
    C     14.26277272     29.65423611     58.00407312      4.10213206
    C     12.83022809     31.01691804     56.59305340      4.07932528
    H     10.93185057     31.60979803     57.38460282      0.92045396
    C     14.04573358     30.30451110     56.81957619      4.07943198
    H     15.18878378     29.10935625     58.17880952      0.92044827
    H     12.67550717     31.52389596     55.64709271      0.92084053
    H     14.80454746     30.27872091     56.04530770      0.92075055
   36
Geometry Step: 11
    C     10.43755130     29.07311214     63.24668414      3.94749314
    C      9.44651368     29.08243071     64.25728607      4.13854297
    C     11.67241537     28.34408514     63.47423247      3.94730620
    C     10.25381028     29.75691097     62.03078272      4.13804771
    C      9.64280447     28.41807918     65.46744883      3.94388708
    H      8.51758920     29.62525706     64.07981038      0.91888351
    C     11.85244602     27.66308457     64.70235834      4.13875490
    C     12.66092635     28.33543484     62.47242604      4.13804759
    C     11.24232599     29.74826874     61.02897790      3.94730616
    H      9.32361263     30.30454993     61.86411368      0.91882745
    C      8.65208376     28.43719675     66.50073960      4.10197159
    C     10.87322864     27.69357644     65.69553548      3.94381799
    H     12.77870409     27.11139690     64.86797574      0.91882760
    H     13.59110588     27.78776664     62.63908311      0.91882716
    C     12.47718965     29.01923804     61.25652706      3.94749314
    C     11.06229932     30.42927164     59.80085244      4.13875475
    C      8.86786658     27.78715928     67.68596798      4.07944486
    H      7.72676818     28.98238317     66.32479530      0.92047963
    C     11.05480571     27.02560042     66.94857565      4.10205844
    C     13.46822531     29.00991221     60.24592487      4.13854261
    C     12.04151444     30.39876593     58.80767340      3.94381819
    H     10.13605680     30.98098597     59.63523276      0.91882743
    C     10.08403834     27.07421070     67.91273872      4.07937854
    H      8.10946297     27.81194576     68.46282153      0.92088944
    H     11.98214322     26.48270895     67.11902604      0.92045510
    H     14.39715336     28.46709313     60.42340575      0.91888364
    C     13.27193316     29.67425423     59.03575660      3.94388699
    C     11.85993796     31.06673920     57.55463298      4.10205831
    H     10.23690126     26.56727011     68.86062392      0.92093392
    C     14.26266110     29.65515138     58.00247201      4.10197163
    C     12.83070602     31.01813263     56.59046952      4.07937854
    H     10.93260471     31.60964190     57.38418927      0.92045566
    C     14.04688715     30.30520433     56.81724978      4.07944493
    H     15.18798236     29.10996868     58.17841328      0.92048024
    H     12.67782987     31.52505592     55.64257734      0.92093375
    H     14.80531461     30.28045634     56.04041939      0.92088920
   36
Geometry Step: 12
    C     10.43729614     29.07295030     63.24762028      3.94752532
    C      9.44696008     29.08186481     64.25885972      4.13845597
    C     11.67176239     28.34381157     63.47531776      3.94743049
    C     10.25492132     29.75652098     62.03069233      4.13800807
    C      9.64220340     28.41729906     65.46932251      3.94389797
    H      8.51995785     29.62546135     64.07909173      0.91883933
    C     11.85117778     27.66324444     64.70391332      4.13865614
    C     12.65981549     28.33582179     62.47251558      4.13800834
    C     11.24298071     29.74854200     61.02789297      3.94743079
    H      9.32521369     30.30449192     61.86203767      0.91904756
    C      8.65186328     28.43586854     66.50346492      4.10176457
    C     10.87232230     27.69282268     65.69759164      3.94385097
    H     12.77779993     27.11320690     64.86798600      0.91881342
    H     13.58950801     27.78783007     62.64115850      0.91904689
    C     12.47744350     29.01939447     61.25558983      3.94752512
    C     11.06356985     30.42911928     59.79930085      4.13865587
    C      8.86615725     27.78599896     67.68972128      4.07937948
    H      7.72747784     28.98160206     66.32564139      0.92055583
    C     11.05334879     27.02486836     66.95132040      4.10185777
    C     13.46777754     29.01047388     60.24435067      4.13845575
    C     12.04242274     30.39952322     58.80561921      3.94385114
    H     10.13695321     30.97917080     59.63522379      0.91881332
    C     10.08314226     27.07243793     67.91674102      4.07928063
    H      8.10833504     27.80946593     68.46979983      0.92103275
    H     11.98132117     26.48261784     67.11999772      0.92053297
    H     14.39478383     28.46688949     60.42412614      0.91883919
    C     13.27253516     29.67503523     59.03388468      3.94389815
    C     11.86139596     31.06747188     57.55188818      4.10185755
    H     10.23361466     26.56554744     68.86715079      0.92107078
    C     14.26288131     29.65648107     57.99974620      4.10176452
    C     12.83160265     31.01990580     56.58646681      4.07928070
    H     10.93342465     31.60972781     57.38321531      0.92053356
    C     14.04859654     30.30636368     56.81349398      4.07937943
    H     15.18727157     29.11075229     58.17757148      0.92055661
    H     12.68112238     31.52678350     55.63605231      0.92107057
    H     14.80643922     30.28293262     56.03343355      0.92103249
   36
Geometry Step: 13
    C     10.43733270     29.07314113     63.24762207      3.94750483
    C      9.44759837     29.08160369     64.25958515      4.13838533
    C     11.67149504     28.34379281     63.47554825      3.94746000
    C     10.25572747     29.75631047     62.03045130      4.13798772
    C      9.64132079     28.41684427     65.47079644      3.94422288
    H      8.52207977     29.62558934     64.07897762      0.91881918
    C     11.85032552     27.66363331     64.70465872      4.13859887
    C     12.65900903     28.33602988     62.47275543      4.13798810
    C     11.24324849     29.74856062     61.02766320      3.94746039
    H      9.32765446     30.30391471     61.86018456      0.91892481
    C      8.65133076     28.43438246     66.50684159      4.10157814
    C     10.87195132     27.69195619     65.69936964      3.94416432
    H     12.77666306     27.11497444     64.86849142      0.91878808
    H     13.58707168     27.78841203     62.64301153      0.91892418
    C     12.47740488     29.01919944     61.25558631      3.94750464
    C     11.06442415     30.42873637     59.79855841      4.13859862
    C      8.86450316     27.78459959     67.69392559      4.07920431
    H      7.72778510     28.98082006     66.32692673      0.92068100
    C     11.05175224     27.02391466     66.95460255      4.10169371
    C     13.46713821     29.01073161     60.24362392      4.13838521
    C     12.04279510     30.40039306     58.80384298      3.94416448
    H     10.13808393     30.97739765     59.63472021      0.91878807
    C     10.08183222     27.07067105     67.92116276      4.07913895
    H      8.10749509     27.80698811     68.47642216      0.92108709
    H     11.98056374     26.48225501     67.12146933      0.92065962
    H     14.39266144     28.46676141     60.42424174      0.91881884
    C     13.27341904     29.67549182     59.03241203      3.94422323
    C     11.86299327     31.06842674     57.54860590      4.10169350
    H     10.23030739     26.56396200     68.87330976      0.92110111
    C     14.26341412     29.65796825     57.99636937      4.10157807
    C     12.83291313     31.02167320     56.58204506      4.07913906
    H     10.93418017     31.61008539     57.38174126      0.92066005
    C     14.05025075     30.30776172     56.80928819      4.07920415
    H     15.18696290     29.11153700     58.17629018      0.92068157
    H     12.68443528     31.52837402     55.62989501      0.92110095
    H     14.80727543     30.28540643     56.02680424      0.92108693
   36
Geometry Step: 14
    C     10.43761967     29.07348565     63.24692759      3.94742476
    C      9.44814038     29.08162734     64.25945737      4.13837647
    C     11.67152905     28.34405874     63.47505652      3.94738915
    C     10.25598179     29.75629118     62.03022005      4.13798113
    C      9.64066355     28.41674191     65.47148120      3.94457085
    H      8.52285759     29.62566226     64.07955204      0.91887909
    C     11.85003280     27.66408762     64.70453086      4.13858456
    C     12.65875407     28.33604846     62.47298584      4.13798123
    C     11.24321356     29.74829471     61.02815529      3.94738935
    H      9.32953794     30.30323644     61.85937237      0.91861813
    C      8.65082747     28.43344266     66.50915200      4.10151960
    C     10.87201992     27.69143212     65.70024017      3.94451160
    H     12.77595165     27.11583081     64.86931233      0.91882440
    H     13.58519162     27.78909239     62.64382422      0.91861786
    C     12.47711622     29.01885384     61.25627932      3.94742484
    C     11.06471750     30.42828337     59.79868747      4.13858449
    C      8.86371756     27.78357720     67.69664129      4.07912481
    H      7.72755730     28.98029391     66.32827086      0.92077382
    C     11.05067229     27.02323423     66.95685568      4.10162990
    C     13.46659590     29.01070721     60.24375027      4.13837630
    C     12.04272661     30.40091882     58.80297313      3.94451175
    H     10.13879391     30.97653777     59.63390088      0.91882441
    C     10.08076930     27.06974574     67.92382922      4.07901040
    H      8.10745162     27.80564686     68.47950278      0.92097958
    H     11.98005471     26.48178988     67.12292229      0.92077670
    H     14.39188380     28.46668753     60.42366779      0.91887880
    C     13.27407706     29.67559625     59.03172749      3.94457118
    C     11.86407334     31.06910825     57.54635282      4.10162978
    H     10.22847407     26.56330803     68.87611109      0.92102499
    C     14.26391802     29.65890843     57.99405925      4.10151954
    C     12.83397637     31.02259894     56.57937899      4.07901052
    H     10.93468822     31.61054775     57.38028676      0.92077693
    C     14.05103643     30.30878316     56.80657254      4.07912461
    H     15.18719009     29.11206460     58.17494802      0.92077405
    H     12.68627134     31.52903097     55.62709447      0.92102494
    H     14.80731622     30.28674484     56.02372061      0.92097951
   36
Geometry Step: 15
    C     10.43785486     29.07371944     63.24637118      3.94734626
    C      9.44840892     29.08170603     64.25922795      4.13838556
    C     11.67156173     28.34437367     63.47458935      3.94729442
    C     10.25598050     29.75631943     62.03006359      4.13798159
    C      9.64036921     28.41673886     65.47174983      3.94475312
    H      8.52266148     29.62574728     64.08039008      0.91897086
    C     11.84996368     27.66441550     64.70428180      4.13859925
    C     12.65875491     28.33602054     62.47314193      4.13798141
    C     11.24317977     29.74797969     61.02862235      3.94729440
    H      9.33035679     30.30285253     61.85925442      0.91839803
    C      8.65052592     28.43302837     66.51024200      4.10152978
    C     10.87208805     27.69125067     65.70060052      3.94467331
    H     12.77572515     27.11597329     64.87014684      0.91889619
    H     13.58437443     27.78947681     62.64394284      0.91839809
    C     12.47688028     29.01862077     61.25683486      3.94734658
    C     11.06478628     30.42795374     59.79893626      4.13859933
    C      8.86361075     27.78307876     67.69770002      4.07908558
    H      7.72706166     28.97995670     66.32952237      0.92082472
    C     11.05021593     27.02289938     66.95783306      4.10165021
    C     13.46632748     29.01062942     60.24397887      4.13838529
    C     12.04265792     30.40110070     58.80261273      3.94467342
    H     10.13902181     30.97639381     59.63306743      0.91889615
    C     10.08015380     27.06948886     67.92482297      4.07899621
    H      8.10780007     27.80521806     68.48002441      0.92087618
    H     11.97967231     26.48135920     67.12418894      0.92082280
    H     14.39208018     28.46660132     60.42282942      0.91897073
    C     13.27437164     29.67560113     59.03145850      3.94475335
    C     11.86452958     31.06944381     57.54537558      4.10165018
    H     10.22785580     26.56327586     68.87648713      0.92091585
    C     14.26422003     29.65932282     57.99296974      4.10152969
    C     12.83459218     31.02285617     56.57838573      4.07899630
    H     10.93507025     31.61097773     57.37901933      0.92082294
    C     14.05114316     30.30928126     56.80551450      4.07908543
    H     15.18768598     29.11240210     58.17369692      0.92082476
    H     12.68689015     31.52906429     55.62671870      0.92091589
    H     14.80696620     30.28717189     56.02319885      0.92087613
   36
Geometry Step: 16
    C     10.43796960     29.07390954     63.24604565      3.94727518
    C      9.44850740     29.08176563     64.25925429      4.13839931
    C     11.67149217     28.34470345     63.47435473      3.94721236
    C     10.25598464     29.75630645     62.02992208      4.13796695
    C      9.64012172     28.41668187     65.47213639      3.94482350
    H      8.52209820     29.62589727     64.08160847      0.91907218
    C     11.84982989     27.66472039     64.70428666      4.13859444
    C     12.65875045     28.33603416     62.47328314      4.13796647
    C     11.24324830     29.74764947     61.02885642      3.94721213
    H      9.33077540     30.30263878     61.85923334      0.91826281
    C      8.65023337     28.43272362     66.51107369      4.10156194
    C     10.87202385     27.69114397     65.70103638      3.94474433
    H     12.77561847     27.11596180     64.87127633      0.91899002
    H     13.58395700     27.78969116     62.64396481      0.91826315
    C     12.47676527     29.01843188     61.25715971      3.94727572
    C     11.06491927     30.42764548     59.79893041      4.13859466
    C      8.86364088     27.78265706     67.69844516      4.07912066
    H      7.72629453     28.97948946     66.33134792      0.92085247
    C     11.04984362     27.02259385     66.95861035      4.10166962
    C     13.46622926     29.01057153     60.24395195      4.13839892
    C     12.04272138     30.40120758     58.80217643      3.94474437
    H     10.13913085     30.97640412     59.63193909      0.91898990
    C     10.07967250     27.06932334     67.92543346      4.07899892
    H      8.10825367     27.80490340     68.48011131      0.92077170
    H     11.97910813     26.48076225     67.12597391      0.92085533
    H     14.39264346     28.46644982     60.42161019      0.91907227
    C     13.27461929     29.67566033     59.03107161      3.94482362
    C     11.86490168     31.06975011     57.54459848      4.10166966
    H     10.22739340     26.56332057     68.87642900      0.92082823
    C     14.26451308     29.65962780     57.99213874      4.10156178
    C     12.83507389     31.02302229     56.57777587      4.07899898
    H     10.93563402     31.61157443     57.37723346      0.92085542
    C     14.05111278     30.30970282     56.80477031      4.07912060
    H     15.18845385     29.11286929     58.17187150      0.92085240
    H     12.68735269     31.52902054     55.62677723      0.92082835
    H     14.80651079     30.28748435     56.02311260      0.92077162
   36
Geometry Step: 17
    C     10.43786481     29.07415775     63.24601757      3.94720795
    C      9.44838825     29.08182927     64.25983028      4.13839876
    C     11.67125439     28.34514747     63.47447407      3.94713122
    C     10.25608820     29.75621183     62.02968434      4.13792290
    C      9.63967185     28.41649354     65.47305540      3.94482891
    H      8.52104451     29.62621745     64.08401745      0.91919651
    C     11.84948580     27.66513666     64.70486285      4.13856530
    C     12.65864672     28.33612981     62.47352040      4.13792211
    C     11.24348488     29.74720405     61.02873585      3.94713078
    H      9.33108577     30.30252761     61.85906903      0.91818714
    C      8.64970142     28.43222416     66.51244542      4.10159610
    C     10.87169923     27.69095870     65.70206252      3.94473850
    H     12.77543083     27.11600592     64.87348087      0.91911649
    H     13.58364808     27.78980422     62.64413072      0.91818775
    C     12.47687017     29.01818548     61.25718698      3.94720867
    C     11.06526184     30.42722273     59.79835196      4.13856569
    C      8.86363098     27.78201801     67.69953694      4.07916194
    H      7.72475176     28.97848626     66.33514949      0.92088288
    C     11.04931354     27.02202971     66.95984955      4.10170389
    C     13.46634899     29.01051102     60.24337547      4.13839829
    C     12.04304502     30.40139311     58.80114936      3.94473841
    H     10.13932216     30.97635806     59.62973658      0.91911627
    C     10.07897086     27.06894534     67.92641444      4.07906600
    H      8.10885220     27.80425203     68.48065376      0.92069725
    H     11.97788360     26.47954937     67.12965664      0.92086569
    H     14.39369642     28.46612707     60.41919927      0.91919688
    C     13.27506963     29.67585263     59.03015249      3.94482886
    C     11.86543139     31.07031569     57.54335951      4.10170401
    H     10.22649262     26.56320197     68.87668248      0.92073261
    C     14.26504589     29.66012799     57.99076834      4.10159586
    C     12.83577625     31.02340169     56.57679608      4.07906602
    H     10.93685761     31.61278691     57.37354890      0.92086572
    C     14.05112204     30.31034185     56.80368013      4.07916201
    H     15.18999811     29.11387238     58.16807027      0.92088271
    H     12.68825388     31.52914099     55.62652484      0.92073280
    H     14.80590880     30.28813112     56.02257110      0.92069713
   36
Geometry Step: 18
    C     10.43732841     29.07443244     63.24660834      3.94719600
    C      9.44784941     29.08190876     64.26125493      4.13838261
    C     11.67086271     28.34553067     63.47530374      3.94712663
    C     10.25632639     29.75600089     62.02939627      4.13784052
    C      9.63894257     28.41616637     65.47461793      3.94471308
    H      8.51972433     29.62668470     64.08758466      0.91926327
    C     11.84892742     27.66555164     64.70634858      4.13847977
    C     12.65840884     28.33634185     62.47380789      4.13783959
    C     11.24387578     29.74681810     61.02790428      3.94712609
    H      9.33115191     30.30264215     61.85860786      0.91825930
    C      8.64888061     28.43159393     66.51427387      4.10163712
    C     10.87107824     27.69066070     65.70376096      3.94464058
    H     12.77505849     27.11628153     64.87670956      0.91920872
    H     13.58358339     27.78969342     62.64459406      0.91826003
    C     12.47740741     29.01791249     61.25659564      3.94719672
    C     11.06581821     30.42679899     59.79686277      4.13848026
    C      8.86341462     27.78118949     67.70103431      4.07925229
    H      7.72247877     28.97689138     66.34098488      0.92087599
    C     11.04863564     27.02118003     66.96161437      4.10171811
    C     13.46688877     29.01043562     60.24195081      4.13838219
    C     12.04366534     30.40169142     58.79944949      3.94464035
    H     10.13969802     30.97607991     59.62651049      0.91920847
    C     10.07820492     27.06823854     67.92776891      4.07912573
    H      8.10929850     27.80315258     68.48221378      0.92069975
    H     11.97597401     26.47769968     67.13526653      0.92084946
    H     14.39501461     28.46565667     60.41562889      0.91926383
    C     13.27580005     29.67618491     59.02859063      3.94471285
    C     11.86610873     31.07116747     57.54159480      4.10171825
    H     10.22505133     26.56266477     68.87783166      0.92073124
    C     14.26586798     29.66075967     57.98894178      4.10163683
    C     12.83654301     31.02411089     56.57544326      4.07912574
    H     10.93876559     31.61463592     57.36793611      0.92084938
    C     14.05133732     30.31117046     56.80218475      4.07925249
    H     15.19227303     29.11546736     58.16223561      0.92087574
    H     12.68969623     31.52968108     55.62537768      0.92073142
    H     14.80545755     30.28922332     56.02101157      0.92069964
   36
Geometry Step: 19
    C     10.43654009     29.07458982     63.24767676      3.94727845
    C      9.44707710     29.08200149     64.26293648      4.13833977
    C     11.67058618     28.34558182     63.47655035      3.94723063
    C     10.25657345     29.75577633     62.02921339      4.13776099
    C      9.63824047     28.41590178     65.47605448      3.94455348
    H      8.51891492     29.62703622     64.09056660      0.91919728
    C     11.84847947     27.66571993     64.70814190      4.13838748
    C     12.65816260     28.33656683     62.47399053      4.13776027
    C     11.24415257     29.74676397     61.02665619      3.94723024
    H      9.33092163     30.30294770     61.85803056      0.91846591
    C      8.64812765     28.43114212     66.51573512      4.10164869
    C     10.87047698     27.69037435     65.70532319      3.94448719
    H     12.77459984     27.11676992     64.87934251      0.91917522
    H     13.58381432     27.78939184     62.64517292      0.91846644
    C     12.47819704     29.01775540     61.25552750      3.94727889
    C     11.06626484     30.42662474     59.79506658      4.13838787
    C      8.86299932     27.78062864     67.70215075      4.07926943
    H      7.72061852     28.97548580     66.34595195      0.92083284
    C     11.04822296     27.02045300     66.96301085      4.10172532
    C     13.46766202     29.01034554     60.24027009      4.13833962
    C     12.04426690     30.40197780     58.79788617      3.94448689
    H     10.14015718     30.97558984     59.62387903      0.91917508
    C     10.07774328     27.06749021     67.92891346      4.07919257
    H      8.10917916     27.80212475     68.48425386      0.92084011
    H     11.97432356     26.47612731     67.13997568      0.92078660
    H     14.39582155     28.46530331     60.41264399      0.91919774
    C     13.27650365     29.67645264     59.02715551      3.94455318
    C     11.86652090     31.07189617     57.54019816      4.10172542
    H     10.22379203     26.56183465     68.87952916      0.92082829
    C     14.26662211     29.66121311     57.98748201      4.10164846
    C     12.83700507     31.02486156     56.57429999      4.07919263
    H     10.94041448     31.61620771     57.36322447      0.92078637
    C     14.05175173     30.31173151     56.80106948      4.07926965
    H     15.19413434     29.11687337     58.15726928      0.92083255
    H     12.69095687     31.53051381     55.62368216      0.92082838
    H     14.80557319     30.29024471     56.01897069      0.92084008
   36
Geometry Step: 20
    C     10.43611034     29.07458946     63.24836322      3.94735259
    C      9.44665208     29.08209075     64.26370297      4.13832585
    C     11.67058769     28.34540686     63.47726038      3.94733520
    C     10.25663497     29.75567293     62.02924846      4.13774889
    C      9.63797708     28.41587968     65.47652018      3.94446949
    H      8.51891427     29.62705635     64.09146162      0.91907968
    C     11.84842184     27.66567908     64.70896178      4.13835072
    C     12.65810183     28.33666996     62.47395576      4.13774852
    C     11.24415174     29.74693755     61.02594595      3.94733504
    H      9.33067385     30.30312779     61.85781093      0.91860729
    C      8.64786386     28.43113327     66.51601265      4.10164687
    C     10.87028444     27.69030107     65.70577805      3.94442261
    H     12.77431372     27.11711879     64.88002039      0.91907308
    H     13.58406190     27.78921328     62.64539280      0.91860753
    C     12.47862760     29.01775501     61.25484190      3.94735272
    C     11.06632230     30.42666524     59.79424602      4.13835095
    C      8.86271343     27.78058161     67.70232329      4.07927349
    H      7.72014518     28.97506175     66.34733218      0.92078196
    C     11.04821563     27.02028137     66.96331544      4.10170740
    C     13.46808751     29.01025641     60.23950470      4.13832595
    C     12.04446019     30.40205063     58.79743106      3.94442236
    H     10.14044120     30.97524109     59.62320063      0.91907311
    C     10.07779719     27.06719894     67.92910036      4.07918275
    H      8.10874424     27.80185341     68.48515664      0.92095083
    H     11.97385928     26.47569229     67.14118149      0.92074774
    H     14.39582105     28.46528337     60.41174784      0.91907988
    C     13.27676787     29.67647439     59.02669085      3.94446925
    C     11.86652803     31.07206807     57.53989334      4.10170741
    H     10.22355054     26.56131860     68.88035891      0.92094381
    C     14.26688633     29.66122286     57.98720476      4.10164675
    C     12.83695107     31.02515375     56.57411337      4.07918284
    H     10.94087820     31.61664287     57.36201805      0.92074745
    C     14.05203745     30.31177868     56.80089679      4.07927362
    H     15.19460742     29.11729783     58.15588921      0.92078168
    H     12.69119891     31.53103059     55.62285303      0.92094383
    H     14.80600780     30.29051407     56.01806683      0.92095088
   36
Geometry Step: 21
    C     10.43602842     29.07457006     63.24858049      3.94738194
    C      9.44657649     29.08215286     64.26387178      4.13831888
    C     11.67068344     28.34531292     63.47741546      3.94737626
    C     10.25661947     29.75564228     62.02931849      4.13775128
    C      9.63793391     28.41594685     65.47654890      3.94446475
    H      8.51907031     29.62699536     64.09153984      0.91902572
    C     11.84847629     27.66567783     64.70911966      4.13835095
    C     12.65811768     28.33670030     62.47388616      4.13775108
    C     11.24405628     29.74703118     61.02579109      3.94737623
    H      9.33059573     30.30313918     61.85781159      0.91864500
    C      8.64781307     28.43120968     66.51598434      4.10164610
    C     10.87028343     27.69032261     65.70576701      3.94441438
    H     12.77419965     27.11728997     64.87998629      0.91902023
    H     13.58413996     27.78920201     62.64539203      0.91864509
    C     12.47870975     29.01777376     61.25462528      3.94738193
    C     11.06626793     30.42666785     59.79408841      4.13835108
    C      8.86258349     27.78063782     67.70225654      4.07924121
    H      7.72017104     28.97507663     66.34724651      0.92076379
    C     11.04829999     27.02032035     66.96324820      4.10170997
    C     13.46816326     29.01019380     60.23933656      4.13831906
    C     12.04446157     30.40202863     58.79744227      3.94441417
    H     10.14055334     30.97507033     59.62323374      0.91902034
    C     10.07785744     27.06714168     67.92905436      4.07917868
    H      8.10841174     27.80190855     68.48530880      0.92099748
    H     11.97389899     26.47570860     67.14099006      0.92073133
    H     14.39566495     28.46534489     60.41166941      0.91902580
    C     13.27681131     29.67640611     59.02666257      3.94446460
    C     11.86644363     31.07202885     57.53996051      4.10170993
    H     10.22370987     26.56109671     68.88051668      0.92098224
    C     14.26693717     29.66114687     57.98723295      4.10164604
    C     12.83689072     31.02521118     56.57415925      4.07917879
    H     10.94083845     31.61662691     57.36220966      0.92073105
    C     14.05216755     30.31172254     56.80096306      4.07924127
    H     15.19458103     29.11728319     58.15597474      0.92076354
    H     12.69103964     31.53125249     55.62269519      0.92098224
    H     14.80634105     30.29045884     56.01791394      0.92099756
   36
Geometry Step: 22
    C     10.43602406     29.07456752     63.24872728      3.94739135
    C      9.44658251     29.08222780     64.26402084      4.13831855
    C     11.67078776     28.34527734     63.47748309      3.94740119
    C     10.25658450     29.75561226     62.02940280      4.13775391
    C      9.63788508     28.41601684     65.47663988      3.94447175
    H      8.51919551     29.62696123     64.09165384      0.91899853
    C     11.84851750     27.66575117     64.70922013      4.13835186
    C     12.65815296     28.33672994     62.47380242      4.13775384
    C     11.24395206     29.74706659     61.02572378      3.94740126
    H      9.33055647     30.30310406     61.85784029      0.91865673
    C      8.64774045     28.43127285     66.51604073      4.10164896
    C     10.87027478     27.69035880     65.70578243      3.94442676
    H     12.77412652     27.11747448     64.87998256      0.91899312
    H     13.58417950     27.78923708     62.64536329      0.91865671
    C     12.47871419     29.01777563     61.25447913      3.94739127
    C     11.06622667     30.42659623     59.79398847      4.13835191
    C      8.86243130     27.78063183     67.70231490      4.07922566
    H      7.72017650     28.97512695     66.34709953      0.92075271
    C     11.04832479     27.02036395     66.96326252      4.10170662
    C     13.46815739     29.01011829     60.23918815      4.13831874
    C     12.04447038     30.40199195     58.79742716      3.94442659
    H     10.14062433     30.97488609     59.62323614      0.91899327
    C     10.07785661     27.06707080     67.92906600      4.07915653
    H      8.10805222     27.80199058     68.48537858      0.92100907
    H     11.97398077     26.47572906     67.14069750      0.92073062
    H     14.39554008     28.46537954     60.41155528      0.91899852
    C     13.27686022     29.67633493     59.02657193      3.94447168
    C     11.86641884     31.07198485     57.53994617      4.10170656
    H     10.22392557     26.56085143     68.88058143      0.92100623
    C     14.26700979     29.66108418     57.98717641      4.10164893
    C     12.83689152     31.02528219     56.57414746      4.07915663
    H     10.94075674     31.61660689     57.36250257      0.92073039
    C     14.05232004     30.31172861     56.80090411      4.07922566
    H     15.19457499     29.11723315     58.15612151      0.92075250
    H     12.69082399     31.53149784     55.62263026      0.92100622
    H     14.80670145     30.29037670     56.01784331      0.92100917
   36
Geometry Step: 23
    C     10.43610078     29.07458768     63.24897566      3.94739164
    C      9.44670737     29.08239643     64.26434152      4.13831560
    C     11.67100073     28.34530714     63.47752570      3.94742518
    C     10.25651721     29.75553578     62.02957952      4.13775541
    C      9.63779915     28.41617099     65.47690655      3.94449924
    H      8.51938654     29.62691895     64.09203928      0.91898202
    C     11.84856670     27.66602359     64.70938215      4.13836154
    C     12.65822087     28.33680568     62.47362701      4.13775554
    C     11.24373902     29.74703667     61.02568191      3.94742543
    H      9.33050622     30.30295932     61.85797391      0.91865815
    C      8.64758345     28.43137097     66.51627936      4.10165067
    C     10.87023155     27.69047807     65.70586762      3.94445386
    H     12.77400958     27.11788123     64.88008891      0.91897313
    H     13.58423069     27.78938150     62.64522977      0.91865797
    C     12.47863748     29.01775419     61.25423202      3.94739148
    C     11.06617714     30.42632750     59.79382780      4.13836146
    C      8.86211216     27.78056467     67.70250432      4.07918043
    H      7.72012652     28.97523721     66.34684333      0.92074831
    C     11.04832215     27.02047531     66.96331899      4.10170475
    C     13.46803288     29.00994852     60.23886872      4.13831574
    C     12.04451350     30.40187163     58.79734275      3.94445379
    H     10.14073692     30.97447961     59.62312665      0.91897331
    C     10.07776389     27.06691403     67.92914196      4.07913390
    H      8.10728025     27.80220548     68.48535287      0.92101094
    H     11.97412364     26.47576530     67.14006143      0.92073760
    H     14.39535024     28.46542277     60.41116960      0.91898189
    C     13.27694602     29.67617842     59.02630577      3.94449936
    C     11.86642155     31.07187255     57.53988977      4.10170466
    H     10.22446982     26.56031576     68.88050888      0.92101762
    C     14.26716668     29.66098716     57.98693744      4.10165068
    C     12.83698433     31.02543919     56.57407115      4.07913397
    H     10.94061426     31.61657172     57.36313954      0.92073749
    C     14.05263991     30.31179596     56.80071338      4.07918036
    H     15.19462383     29.11712346     58.15637711      0.92074821
    H     12.69027970     31.53203372     55.62270231      0.92101764
    H     14.80747531     30.29016149     56.01786729      0.92101101
   36
Geometry Step: 24
    C     10.43625391     29.07464993     63.24920516      3.94737139
    C      9.44694261     29.08259708     64.26474087      4.13831861
    C     11.67119905     28.34546310     63.47752124      3.94742564
    C     10.25645717     29.75543177     62.02977015      4.13775318
    C      9.63773356     28.41634087     65.47731035      3.94452050
    H      8.51950745     29.62692045     64.09265215      0.91900433
    C     11.84857090     27.66645031     64.70954790      4.13837082
    C     12.65828147     28.33690898     62.47343784      4.13775343
    C     11.24354036     29.74688088     61.02568722      3.94742599
    H      9.33044685     30.30273643     61.85820646      0.91864526
    C      8.64741051     28.43145998     66.51661867      4.10166072
    C     10.87015200     27.69067930     65.70602942      3.94448303
    H     12.77393788     27.11835202     64.88036537      0.91899164
    H     13.58429141     27.78960385     62.64499760      0.91864498
    C     12.47848423     29.01769079     61.25400370      3.94737124
    C     11.06617225     30.42590452     59.79366367      4.13837066
    C      8.86177254     27.78041994     67.70279504      4.07915226
    H      7.71999866     28.97533975     66.34668381      0.92075196
    C     11.04823273     27.02061461     66.96341794      4.10170228
    C     13.46779802     29.00974679     60.23847046      4.13831859
    C     12.04459235     30.40166934     58.79718187      3.94448307
    H     10.14080435     30.97400862     59.62284647      0.91899178
    C     10.07759741     27.06673531     67.92922828      4.07910302
    H      8.10641677     27.80247373     68.48513653      0.92097867
    H     11.97420763     26.47579520     67.13938359      0.92075720
    H     14.39523123     28.46542214     60.41055656      0.91900415
    C     13.27701102     29.67600637     59.02590230      3.94452080
    C     11.86651114     31.07173212     57.53979098      4.10170220
    H     10.22515526     26.55969072     68.88020564      0.92100932
    C     14.26733930     29.66089932     57.98659780      4.10166073
    C     12.83715101     31.02561807     56.57398441      4.07910303
    H     10.94053107     31.61654314     57.36381861      0.92075729
    C     14.05298037     30.31194093     56.80042128      4.07915214
    H     15.19475064     29.11702147     58.15653580      0.92075202
    H     12.68959405     31.53265908     55.62300495      0.92100938
    H     14.80834081     30.28989272     56.01808197      0.92097870
   36
Geometry Step: 25
    C     10.43636872     29.07476367     63.24934471      3.94735016
    C      9.44715122     29.08276894     64.26507859      4.13831878
    C     11.67128381     28.34570537     63.47752100      3.94740333
    C     10.25645153     29.75533685     62.02985977      4.13774282
    C      9.63773175     28.41647907     65.47766132      3.94452253
    H      8.51946890     29.62698417     64.09338199      0.91904855
    C     11.84853617     27.66686151     64.70969460      4.13837263
    C     12.65828734     28.33700368     62.47334900      4.13774303
    C     11.24345526     29.74663901     61.02568803      3.94740361
    H      9.33038717     30.30252581     61.85845855      0.91863367
    C      8.64728951     28.43149597     66.51692040      4.10167644
    C     10.87008318     27.69091081     65.70621350      3.94448647
    H     12.77393295     27.11870370     64.88082411      0.91903531
    H     13.58435213     27.78981409     62.64474618      0.91863343
    C     12.47836930     29.01757676     61.25386454      3.94735013
    C     11.06620616     30.42549473     59.79351788      4.13837251
    C      8.86156458     27.78027354     67.70301293      4.07913731
    H      7.71977763     28.97533365     66.34689995      0.92076231
    C     11.04811565     27.02070043     66.96348172      4.10171547
    C     13.46758967     29.00957458     60.23813297      4.13831858
    C     12.04466008     30.40143734     58.79699831      3.94448657
    H     10.14080755     30.97365605     59.62238523      0.91903532
    C     10.07743544     27.06659409     67.92928572      4.07910546
    H      8.10582671     27.80264231     68.48483352      0.92094509
    H     11.97409705     26.47576187     67.13912615      0.92076580
    H     14.39527147     28.46535874     60.40982662      0.91904842
    C     13.27701193     29.67586759     59.02555132      3.94452289
    C     11.86662842     31.07164563     57.53972737      4.10171544
    H     10.22566311     26.55920580     68.87979183      0.92097763
    C     14.26745985     29.66086390     57.98629592      4.10167641
    C     12.83731320     31.02575930     56.57392676      4.07910537
    H     10.94064265     31.61657743     57.36407708      0.92076602
    C     14.05318881     30.31208753     56.80020273      4.07913722
    H     15.19497134     29.11702782     58.15631894      0.92076250
    H     12.68908583     31.53314433     55.62341847      0.92097773
    H     14.80893181     30.28972349     56.01838441      0.92094504
   36
Geometry Step: 26
    C     10.43639960     29.07488971     63.24937941      3.94733689
    C      9.44723732     29.08287881     64.26525775      4.13832341
    C     11.67124456     28.34592771     63.47756306      3.94737318
    C     10.25648591     29.75528850     62.02982789      4.13773719
    C      9.63776723     28.41655501     65.47786168      3.94450598
    H      8.51934114     29.62709562     64.09393829      0.91908204
    C     11.84850701     27.66710539     64.70980263      4.13836970
    C     12.65825285     28.33705231     62.47338074      4.13773727
    C     11.24349440     29.74641713     61.02564605      3.94737331
    H      9.33034664     30.30240582     61.85861328      0.91862672
    C      8.64725258     28.43147644     66.51708127      4.10169090
    C     10.87005912     27.69108721     65.70636769      3.94447544
    H     12.77398386     27.11886637     64.88127374      0.91906981
    H     13.58439295     27.78993409     62.64459214      0.91862661
    C     12.47833843     29.01745120     61.25382943      3.94733698
    C     11.06623481     30.42524974     59.79340977      4.13836968
    C      8.86151929     27.78016462     67.70313423      4.07915008
    H      7.71956981     28.97523487     66.34735132      0.92077215
    C     11.04799092     27.02070505     66.96352130      4.10172436
    C     13.46750360     29.00946503     60.23795322      4.13832310
    C     12.04468325     30.40126115     58.79684409      3.94447553
    H     10.14075755     30.97349214     59.62193507      0.91906971
    C     10.07733988     27.06651513     67.92931388      4.07911345
    H      8.10564559     27.80262713     68.48465414      0.92092213
    H     11.97386898     26.47568249     67.13930656      0.92077145
    H     14.39540000     28.46524718     60.40927034      0.91908201
    C     13.27697576     29.67579263     59.02535068      3.94450629
    C     11.86675333     31.07164100     57.53968789      4.10172441
    H     10.22580453     26.55896323     68.87952621      0.92095489
    C     14.26749635     29.66088324     57.98613512      4.10169082
    C     12.83740887     31.02583814     56.57389860      4.07911331
    H     10.94087154     31.61665712     57.36389715      0.92077168
    C     14.05323404     30.31219649     56.80008168      4.07915008
    H     15.19517950     29.11712657     58.15586725      0.92077239
    H     12.68894410     31.53338713     55.62368422      0.92095499
    H     14.80911260     30.28973812     56.01856430      0.92092205
   36
Geometry Step: 27
    C     10.43638084     29.07502606     63.24940659      3.94733554
    C      9.44725942     29.08298584     64.26539297      4.13832293
    C     11.67119000     28.34611137     63.47765812      3.94735016
    C     10.25652802     29.75526810     62.02974687      4.13773244
    C      9.63778656     28.41662415     65.47803028      3.94449949
    H      8.51925467     29.62725646     64.09432604      0.91909994
    C     11.84850661     27.66726952     64.70993641      4.13836472
    C     12.65821058     28.33707307     62.47346127      4.13773239
    C     11.24354913     29.74623392     61.02555090      3.94735013
    H      9.33031798     30.30233439     61.85866879      0.91862596
    C      8.64723912     28.43141098     66.51725677      4.10169026
    C     10.87006244     27.69122329     65.70655024      3.94446809
    H     12.77406843     27.11901637     64.88166152      0.91908733
    H     13.58442153     27.79000587     62.64453727      0.91862595
    C     12.47835731     29.01731540     61.25380157      3.94733572
    C     11.06623498     30.42508386     59.79327557      4.13836479
    C      8.86148626     27.78005978     67.70327852      4.07914842
    H      7.71942399     28.97512257     66.34778742      0.92078685
    C     11.04785134     27.02066606     66.96360018      4.10172501
    C     13.46748140     29.00935834     60.23781715      4.13832260
    C     12.04467947     30.40112559     58.79666131      3.94446818
    H     10.14067458     30.97334070     59.62154754      0.91908713
    C     10.07724056     27.06641890     67.92942569      4.07912369
    H      8.10556766     27.80247654     68.48470405      0.92091907
    H     11.97364031     26.47560377     67.13955398      0.92077824
    H     14.39548666     28.46508631     60.40888272      0.91909998
    C     13.27695605     29.67572482     59.02518180      3.94449968
    C     11.86689308     31.07168025     57.53960905      4.10172511
    H     10.22573609     26.55874651     68.87949808      0.92094172
    C     14.26750940     29.66094817     57.98595971      4.10169015
    C     12.83750821     31.02593418     56.57378684      4.07912353
    H     10.94110090     31.61673585     57.36365003      0.92077844
    C     14.05326677     30.31230124     56.79993788      4.07914848
    H     15.19532567     29.11723888     58.15543109      0.92078708
    H     12.68901240     31.53360414     55.62371272      0.92094181
    H     14.80918969     30.28988826     56.01851513      0.92091898
   36
Geometry Step: 28
    C     10.43636773     29.07516460     63.24934375      3.94734368
    C      9.44726076     29.08309049     64.26535241      4.13831879
    C     11.67114901     28.34624675     63.47771415      3.94733400
    C     10.25654556     29.75529286     62.02963968      4.13772799
    C      9.63786690     28.41672031     65.47801703      3.94450158
    H      8.51923702     29.62744912     64.09431072      0.91910767
    C     11.84857968     27.66733582     64.70995857      4.13835575
    C     12.65819275     28.33704877     62.47356764      4.13772783
    C     11.24359054     29.74609918     61.02549473      3.94733383
    H      9.33027254     30.30230745     61.85868555      0.91862292
    C      8.64730021     28.43137624     66.51726116      4.10168822
    C     10.87014808     27.69136309     65.70659311      3.94447262
    H     12.77424675     27.11908905     64.88177606      0.91909305
    H     13.58446642     27.79003309     62.64452096      0.91862302
    C     12.47837053     29.01717755     61.25386351      3.94734391
    C     11.06616214     30.42501554     59.79325279      4.13835590
    C      8.86150649     27.78001975     67.70331841      4.07915180
    H      7.71947164     28.97512371     66.34780410      0.92079886
    C     11.04776083     27.02064180     66.96358005      4.10172146
    C     13.46747972     29.00925390     60.23785656      4.13831849
    C     12.04459375     30.40098654     58.79661811      3.94447267
    H     10.14049829     30.97326660     59.62143387      0.91909284
    C     10.07721727     27.06637425     67.92946661      4.07912110
    H      8.10559637     27.80229696     68.48475529      0.92091718
    H     11.97356279     26.47564476     67.13949022      0.92078692
    H     14.39550414     28.46489387     60.40889846      0.91910776
    C     13.27687547     29.67563011     59.02519466      3.94450163
    C     11.86698382     31.07170490     57.53962919      4.10172162
    H     10.22559703     26.55862581     68.87951602      0.92093635
    C     14.26744783     29.66098191     57.98595530      4.10168811
    C     12.83753138     31.02597836     56.57374594      4.07912095
    H     10.94117907     31.61669469     57.36371407      0.92078705
    C     14.05324605     30.31234106     56.79989867      4.07915192
    H     15.19527837     29.11723767     58.15541455      0.92079903
    H     12.68915130     31.53372490     55.62369520      0.92093641
    H     14.80915998     30.29006804     56.01846496      0.92091709
   36
Geometry Step: 29
    C     10.43636032     29.07560265     63.24935295      3.94737033
    C      9.44731578     29.08353940     64.26544354      4.13830812
    C     11.67115131     28.34668469     63.47797255      3.94730486
    C     10.25658649     29.75529871     62.02941306      4.13771966
    C      9.63807301     28.41713411     65.47813275      3.94451328
    H      8.51931228     29.62804256     64.09454744      0.91910790
    C     11.84882949     27.66772857     64.71019037      4.13833601
    C     12.65815138     28.33704406     62.47379249      4.13771930
    C     11.24358959     29.74566281     61.02523610      3.94730439
    H      9.33012519     30.30213476     61.85879001      0.91862540
    C      8.64743541     28.43132389     66.51739583      4.10168620
    C     10.87036675     27.69188474     65.70679342      3.94448774
    H     12.77468095     27.11961024     64.88224872      0.91908826
    H     13.58461236     27.79020671     62.64441793      0.91862570
    C     12.47837845     29.01674097     61.25385241      3.94737061
    C     11.06591292     30.42461827     59.79301941      4.13833629
    C      8.86141813     27.77985962     67.70349093      4.07913712
    H      7.71961601     28.97511366     66.34787198      0.92082805
    C     11.04747895     27.02064134     66.96353125      4.10171634
    C     13.46742393     29.00880519     60.23776282      4.13830795
    C     12.04437526     30.40046643     58.79641700      3.94448773
    H     10.14006775     30.97274116     59.62096232      0.91908802
    C     10.07708836     27.06613829     67.92960168      4.07911360
    H      8.10532774     27.80178905     68.48489266      0.92092060
    H     11.97330513     26.47576961     67.13906283      0.92080933
    H     14.39542857     28.46430171     60.40866270      0.91910805
    C     13.27666894     29.67521923     59.02507815      3.94451299
    C     11.86726635     31.07170621     57.53967807      4.10171659
    H     10.22538878     26.55794436     68.87951288      0.92092738
    C     14.26731126     29.66103179     57.98582037      4.10168612
    C     12.83765989     31.02621315     56.57361079      4.07911348
    H     10.94143863     31.61657016     57.36414272      0.92080929
    C     14.05333315     30.31250052     56.79972747      4.07913734
    H     15.19513438     29.11724779     58.15534683      0.92082807
    H     12.68935905     31.53440665     55.62369951      0.92092736
    H     14.80942651     30.29057629     56.01833004      0.92092052
   36
Geometry Step: 30
    C     10.43640281     29.07596889     63.24946937      3.94739310
    C      9.44737682     29.08401968     64.26559578      4.13830662
    C     11.67125959     28.34704865     63.47824508      3.94729795
    C     10.25658721     29.75526817     62.02929315      4.13772365
    C      9.63823874     28.41758445     65.47825543      3.94451919
    H      8.51946427     29.62858624     64.09478030      0.91908620
    C     11.84909520     27.66816599     64.71046910      4.13832578
    C     12.65815061     28.33707552     62.47391139      4.13772327
    C     11.24348241     29.74529972     61.02496333      3.94729739
    H      9.32999181     30.30195345     61.85888105      0.91863063
    C      8.64756356     28.43134251     66.51748976      4.10169045
    C     10.87053435     27.69239175     65.70695078      3.94450221
    H     12.77500667     27.12022426     64.88263873      0.91906335
    H     13.58474446     27.79038885     62.64432797      0.91863097
    C     12.47833661     29.01637572     61.25373505      3.94739331
    C     11.06564788     30.42417784     59.79273926      4.13832608
    C      8.86130052     27.77972732     67.70358147      4.07912929
    H      7.71982296     28.97510812     66.34784502      0.92084152
    C     11.04726256     27.02070915     66.96345476      4.10171021
    C     13.46736238     29.00832494     60.23760918      4.13830660
    C     12.04420848     30.39996012     58.79625899      3.94450216
    H     10.13974361     30.97212378     59.62057266      0.91906317
    C     10.07697905     27.06590274     67.92963998      4.07910742
    H      8.10501100     27.80134091     68.48492116      0.92092021
    H     11.97310341     26.47589394     67.13852114      0.92082761
    H     14.39527611     28.46375964     60.40843039      0.91908632
    C     13.27650348     29.67477018     59.02495502      3.94451870
    C     11.86748315     31.07163909     57.53975466      4.10171047
    H     10.22527187     26.55724229     68.87941050      0.92092495
    C     14.26718225     29.66101143     57.98572608      4.10169042
    C     12.83776875     31.02644793     56.57357238      4.07910738
    H     10.94164156     31.61644680     57.36468551      0.92082745
    C     14.05344970     30.31263206     56.79963761      4.07912955
    H     15.19492733     29.11725342     58.15537389      0.92084143
    H     12.68947551     31.53510895     55.62380275      0.92092484
    H     14.80974202     30.29102474     56.01830325      0.92092015
   36
Geometry Step: 31
    C     10.43652243     29.07638920     63.24969417      3.94741332
    C      9.44747380     29.08470725     64.26580012      4.13830469
    C     11.67152418     28.34747568     63.47856821      3.94731052
    C     10.25654849     29.75518460     62.02923303      4.13772542
    C      9.63842816     28.41822711     65.47837815      3.94452655
    H      8.51966322     29.62930275     64.09510230      0.91904769
    C     11.84946811     27.66881422     64.71086240      4.13831428
    C     12.65818962     28.33716020     62.47397098      4.13772510
    C     11.24321885     29.74487297     61.02463969      3.94731003
    H      9.32983268     30.30172401     61.85895752      0.91864227
    C      8.64771779     28.43145150     66.51757043      4.10170594
    C     10.87071226     27.69304384     65.70708877      3.94451393
    H     12.77536735     27.12108856     64.88312884      0.91902659
    H     13.58490218     27.79061924     62.64425254      0.91864254
    C     12.47821783     29.01595650     61.25351004      3.94741333
    C     11.06527584     30.42352684     59.79234409      4.13831453
    C      8.86116191     27.77957158     67.70358343      4.07911031
    H      7.72007860     28.97510410     66.34782244      0.92084550
    C     11.04709475     27.02084724     66.96332850      4.10171569
    C     13.46726506     29.00763753     60.23740423      4.13830492
    C     12.04403236     30.39930802     58.79612019      3.94451381
    H     10.13938318     30.97125597     59.62008248      0.91902656
    C     10.07684144     27.06559442     67.92958551      4.07910672
    H      8.10462227     27.80076358     68.48484341      0.92092665
    H     11.97290042     26.47598598     67.13784841      0.92083871
    H     14.39507632     28.46304530     60.40810859      0.91904772
    C     13.27631511     29.67412759     59.02483207      3.94452592
    C     11.86765118     31.07150188     57.53988114      4.10171590
    H     10.22513148     26.55632349     68.87916915      0.92092571
    C     14.26702759     29.66090090     57.98564489      4.10170604
    C     12.83790571     31.02675576     56.57362681      4.07910678
    H     10.94184525     31.61635674     57.36535943      0.92083843
    C     14.05358698     30.31278671     56.79963586      4.07911054
    H     15.19467128     29.11725742     58.15539660      0.92084526
    H     12.68961535     31.53602797     55.62404493      0.92092552
    H     14.81012987     30.29160242     56.01838258      0.92092661
   36
Geometry Step: 32
    C     10.43675497     29.07684444     63.25001906      3.94741744
    C      9.44762789     29.08560376     64.26607645      4.13831114
    C     11.67193170     28.34798624     63.47892428      3.94733357
    C     10.25645430     29.75504069     62.02924605      4.13773460
    C      9.63861953     28.41904188     65.47854599      3.94452755
    H      8.51987455     29.63022051     64.09552760      0.91900369
    C     11.84993594     27.66971369     64.71136882      4.13830620
    C     12.65828447     28.33730544     62.47395811      4.13773443
    C     11.24281189     29.74436186     61.02428279      3.94733332
    H      9.32966303     30.30145458     61.85898731      0.91864967
    C      8.64789953     28.43166006     66.51765661      4.10172462
    C     10.87087181     27.69381453     65.70724671      3.94452549
    H     12.77576855     27.12219691     64.88376092      0.91898932
    H     13.58507072     27.79088962     62.64422362      0.91864978
    C     12.47798628     29.01550252     61.25318582      3.94741713
    C     11.06480896     30.42262500     59.79183550      4.13830632
    C      8.86103518     27.77936610     67.70348806      4.07910197
    H      7.72032281     28.97508846     66.34790276      0.92084453
    C     11.04697392     27.02106362     66.96319296      4.10171362
    C     13.46711096     29.00674155     60.23712852      4.13831164
    C     12.04387531     30.39853644     58.79596136      3.94452525
    H     10.13898074     30.97014414     59.61944986      0.91898952
    C     10.07667395     27.06521049     67.92940356      4.07911180
    H      8.10426113     27.80002832     68.48459184      0.92092657
    H     11.97268775     26.47598560     67.13719254      0.92085352
    H     14.39486405     28.46212992     60.40768304      0.91900361
    C     13.27612557     29.67331158     59.02466412      3.94452694
    C     11.86777189     31.07128661     57.54001703      4.10171370
    H     10.22489649     26.55523613     68.87871198      0.92092524
    C     14.26684612     29.66069128     57.98555805      4.10172486
    C     12.83807237     31.02713970     56.57380880      4.07911201
    H     10.94205790     31.61636019     57.36601631      0.92085315
    C     14.05371218     30.31299072     56.79973088      4.07910208
    H     15.19442658     29.11727274     58.15531643      0.92084415
    H     12.68984975     31.53711560     55.62450269      0.92092499
    H     14.81049064     30.29233789     56.01863528      0.92092659
   36
Geometry Step: 33
    C     10.43715801     29.07743823     63.25049372      3.94739816
    C      9.44791935     29.08693064     64.26647522      4.13832011
    C     11.67256974     28.34872645     63.47933930      3.94736945
    C     10.25627544     29.75480489     62.02932647      4.13774352
    C      9.63886093     28.42019605     65.47882350      3.94452999
    H      8.52013139     29.63161036     64.09608079      0.91896343
    C     11.85060237     27.67110990     64.71209108      4.13830031
    C     12.65846454     28.33754304     62.47387884      4.13774358
    C     11.24217349     29.74361995     61.02386649      3.94736962
    H      9.32944352     30.30111096     61.85891077      0.91865373
    C      8.64811999     28.43203919     66.51781468      4.10175015
    C     10.87105052     27.69485454     65.70748339      3.94453330
    H     12.77635762     27.12379116     64.88468158      0.91896183
    H     13.58528966     27.79123426     62.64430087      0.91865357
    C     12.47758423     29.01491045     61.25271305      3.94739746
    C     11.06414344     30.42122669     59.79111064      4.13830021
    C      8.86092291     27.77902408     67.70327384      4.07908403
    H      7.72053962     28.97510868     66.34810233      0.92083808
    C     11.04694492     27.02138739     66.96305497      4.10171281
    C     13.46682010     29.00541594     60.23673188      4.13832093
    C     12.04369972     30.39749447     58.79572363      3.94453289
    H     10.13838867     30.96854574     59.61852796      0.91896235
    C     10.07642018     27.06464679     67.92906957      4.07912939
    H      8.10390380     27.79891391     68.48412626      0.92092938
    H     11.97247690     26.47583260     67.13648816      0.92086522
    H     14.39460631     28.46074278     60.40712921      0.91896319
    C     13.27588683     29.67215441     59.02438659      3.94452957
    C     11.86780043     31.07096440     57.54015562      4.10171260
    H     10.22441794     26.55375208     68.87794126      0.92091767
    C     14.26662691     29.66031155     57.98539914      4.10175059
    C     12.83832508     31.02770407     56.57414293      4.07912974
    H     10.94226786     31.61651804     57.36672138      0.92086483
    C     14.05382254     30.31333067     56.79994383      4.07908394
    H     15.19420936     29.11725159     58.15511707      0.92083753
    H     12.69032766     31.53860014     55.62527368      0.92091737
    H     14.81084814     30.29345239     56.01910138      0.92092948
   36
Geometry Step: 34
    C     10.43763691     29.07804832     63.25095689      3.94736391
    C      9.44833671     29.08834966     64.26696109      4.13833056
    C     11.67322397     28.34956690     63.47970499      3.94739950
    C     10.25608533     29.75452538     62.02941789      4.13774343
    C      9.63908978     28.42136860     65.47920275      3.94452161
    H      8.52044931     29.63317661     64.09657369      0.91895360
    C     11.85126358     27.67271806     64.71285206      4.13829051
    C     12.65865588     28.33782430     62.47378932      4.13774357
    C     11.24151779     29.74277698     61.02349960      3.94740004
    H      9.32929010     30.30078045     61.85865578      0.91865110
    C      8.64830631     28.43250078     66.51807405      4.10176920
    C     10.87121419     27.69588235     65.70780152      3.94454140
    H     12.77700218     27.12552258     64.88570267      0.91896955
    H     13.58544397     27.79156551     62.64455608      0.91865078
    C     12.47710589     29.01430210     61.25225236      3.94736292
    C     11.06348240     30.41961749     59.79034795      4.13829025
    C      8.86085287     27.77856228     67.70305653      4.07908187
    H      7.72059644     28.97517674     66.34847384      0.92083027
    C     11.04702654     27.02170783     66.96304019      4.10170092
    C     13.46640396     29.00399892     60.23624914      4.13833149
    C     12.04353805     30.39646425     58.79540473      3.94454088
    H     10.13774016     30.96681048     59.61750510      0.91897029
    C     10.07614007     27.06398901     67.92870370      4.07914766
    H      8.10372242     27.79757984     68.48366045      0.92092605
    H     11.97231647     26.47549975     67.13607399      0.92087259
    H     14.39428852     28.45917815     60.40663564      0.91895333
    C     13.27566016     29.67097831     59.02400729      3.94452156
    C     11.86771795     31.07064565     57.54017101      4.10170049
    H     10.22362138     26.55223811     68.87712689      0.92090677
    C     14.26644254     29.65985019     57.98513900      4.10176970
    C     12.83860432     31.02836314     56.57450898      4.07914808
    H     10.94242691     31.61685591     57.36713654      0.92087216
    C     14.05389105     30.31379035     56.80015925      4.07908154
    H     15.19415287     29.11718196     58.15474575      0.92082965
    H     12.69112390     31.54011489     55.62608769      0.92090650
    H     14.81103015     30.29478619     56.01956629      0.92092626
   36
Geometry Step: 35
    C     10.43809408     29.07872158     63.25138356      3.94732651
    C      9.44887161     29.08981931     64.26756004      4.13833944
    C     11.67379737     28.35054601     63.48003549      3.94741079
    C     10.25589724     29.75424113     62.02943785      4.13773455
    C      9.63932517     28.42249817     65.47973521      3.94450906
    H      8.52084173     29.63488073     64.09704189      0.91897903
    C     11.85190616     27.67447814     64.71363212      4.13827560
    C     12.65884506     28.33810989     62.47377178      4.13773461
    C     11.24094201     29.74179520     61.02316852      3.94741151
    H      9.32914501     30.30048177     61.85826073      0.91864391
    C      8.64839459     28.43304012     66.51846049      4.10177480
    C     10.87143000     27.69689511     65.70823806      3.94454387
    H     12.77774432     27.12733954     64.88685326      0.91901445
    H     13.58559166     27.79186465     62.64495096      0.91864363
    C     12.47664897     29.01363042     61.25182815      3.94732557
    C     11.06283873     30.41785729     59.78956764      4.13827525
    C      8.86080020     27.77798133     67.70284508      4.07907957
    H      7.72037801     28.97535183     66.34903335      0.92082354
    C     11.04724580     27.02197170     66.96313343      4.10168474
    C     13.46587100     29.00253194     60.23565336      4.13834014
    C     12.04332167     30.39544919     58.79496789      3.94454340
    H     10.13699383     30.96498983     59.61635194      0.91901524
    C     10.07584512     27.06324512     67.92831764      4.07916855
    H      8.10362588     27.79608779     68.48320918      0.92092856
    H     11.97223697     26.47498806     67.13596826      0.92086859
    H     14.39389795     28.45747415     60.40616725      0.91897892
    C     13.27542545     29.66984588     59.02347464      3.94450943
    C     11.86749783     31.07038323     57.54007833      4.10168418
    H     10.22258430     26.55067836     68.87628149      0.92089477
    C     14.26635632     29.65931157     57.98475207      4.10177521
    C     12.83889882     31.02910866     56.57489519      4.07916890
    H     10.94250536     31.61737222     57.36724480      0.92086820
    C     14.05394304     30.31436956     56.80036847      4.07907916
    H     15.19437263     29.11700477     58.15418610      0.92082298
    H     12.69216087     31.54167578     55.62693238      0.92089457
    H     14.81112745     30.29627756     56.02001545      0.92092879
   36
Geometry Step: 36
    C     10.43812656     29.07881003     63.25131851      3.94731817
    C      9.44911360     29.08998643     64.26767011      4.13834164
    C     11.67374932     28.35076544     63.47995414      3.94739386
    C     10.25588758     29.75419333     62.02936868      4.13772386
    C      9.63938335     28.42252605     65.47983898      3.94449149
    H      8.52109260     29.63516839     64.09680376      0.91902054
    C     11.85194708     27.67481633     64.71361860      4.13827539
    C     12.65885475     28.33815712     62.47384216      4.13772373
    C     11.24098831     29.74157475     61.02325070      3.94739434
    H      9.32923447     30.30052796     61.85794092      0.91863741
    C      8.64831097     28.43327882     66.51850470      4.10176043
    C     10.87153943     27.69690752     65.70831114      3.94453732
    H     12.77786719     27.12758596     64.88694730      0.91905893
    H     13.58550502     27.79181796     62.64526963      0.91863733
    C     12.47661589     29.01354175     61.25189392      3.94731763
    C     11.06279574     30.41752099     59.78958344      4.13827518
    C      8.86091157     27.77781786     67.70262769      4.07910092
    H      7.72003722     28.97556376     66.34924251      0.92081015
    C     11.04759947     27.02194493     66.96321542      4.10167173
    C     13.46563053     29.00236622     60.23554437      4.13834194
    C     12.04320871     30.39543626     58.79489549      3.94453704
    H     10.13686950     30.96474436     59.61625663      0.91905952
    C     10.07590133     27.06311318     67.92807423      4.07917893
    H      8.10396269     27.79570926     68.48307993      0.92093792
    H     11.97243291     26.47467684     67.13647170      0.92084242
    H     14.39364958     28.45718403     60.40640591      0.91902064
    C     13.27536530     29.66981805     59.02337078      3.94449202
    C     11.86714381     31.07040978     57.53999639      4.10167125
    H     10.22201525     26.55065863     68.87607880      0.92089901
    C     14.26644072     29.65907410     57.98470818      4.10176063
    C     12.83884322     31.02924147     56.57513866      4.07917909
    H     10.94230917     31.61768333     57.36674299      0.92084213
    C     14.05383293     30.31453346     56.80058504      4.07910057
    H     15.19471499     29.11679166     58.15397646      0.92080979
    H     12.69273039     31.54169598     55.62713409      0.92089891
    H     14.81079132     30.29665559     56.02014206      0.92093813
   36
Geometry Step: 37
    C     10.43807633     29.07900758     63.25119503      3.94732640
    C      9.44948248     29.09015675     64.26784652      4.13835284
    C     11.67355474     28.35112369     63.47990186      3.94735128
    C     10.25593130     29.75416530     62.02916421      4.13772682
    C      9.63952858     28.42254066     65.48002824      3.94447318
    H      8.52166138     29.63546665     64.09644749      0.91906348
    C     11.85198590     27.67520861     64.71355199      4.13828800
    C     12.65881086     28.33818381     62.47404753      4.13772646
    C     11.24118171     29.74121635     61.02330481      3.94735128
    H      9.32937168     30.30054157     61.85756176      0.91862543
    C      8.64819046     28.43357118     66.51855733      4.10172945
    C     10.87179392     27.69698885     65.70845138      3.94453274
    H     12.77801933     27.12798706     64.88699877      0.91909649
    H     13.58537113     27.79180402     62.64564744      0.91862562
    C     12.47666565     29.01334327     61.25201749      3.94732647
    C     11.06275367     30.41713100     59.78965364      4.13828806
    C      8.86099043     27.77760430     67.70235720      4.07912068
    H      7.71963055     28.97593576     66.34938131      0.92079633
    C     11.04803736     27.02187061     66.96326997      4.10165062
    C     13.46526355     29.00219712     60.23536817      4.13835266
    C     12.04294850     30.39535492     58.79475647      3.94453280
    H     10.13671608     30.96434421     59.61620315      0.91909664
    C     10.07599521     27.06293675     67.92776270      4.07919034
    H      8.10424151     27.79524239     68.48295677      0.92095783
    H     11.97272746     26.47437849     67.13696160      0.92080965
    H     14.39308445     28.45688271     60.40676363      0.91906379
    C     13.27521651     29.66980502     59.02318135      3.94447371
    C     11.86670603     31.07048318     57.53994185      4.10165030
    H     10.22134093     26.55055116     68.87582866      0.92090838
    C     14.26656101     29.65878272     57.98465609      4.10172932
    C     12.83875043     31.02941835     56.57545025      4.07919016
    H     10.94201561     31.61798074     57.36625561      0.92080956
    C     14.05375621     30.31474816     56.80085510      4.07912050
    H     15.19512336     29.11641867     58.15383653      0.92079626
    H     12.69340543     31.54180413     55.62738315      0.92090846
    H     14.81051296     30.29712185     56.02026163      0.92095799
   36
Geometry Step: 38
    C     10.43843748     29.08000985     63.25153684      3.94733681
    C      9.45027685     29.09178408     64.26855213      4.13836797
    C     11.67396665     28.35245424     63.48035681      3.94732001
    C     10.25585067     29.75388953     62.02894848      4.13773041
    C      9.64004992     28.42388659     65.48060796      3.94445385
    H      8.52266724     29.63727433     64.09685748      0.91907779
    C     11.85274031     27.67719624     64.71425053      4.13828942
    C     12.65889225     28.33845995     62.47426440      4.13772997
    C     11.24076957     29.73988551     61.02285092      3.94731979
    H      9.32922834     30.30005298     61.85726949      0.91861942
    C      8.64831851     28.43423522     66.51881886      4.10173105
    C     10.87235351     27.69840798     65.70891418      3.94454656
    H     12.77889237     27.13027954     64.88812894      0.91911056
    H     13.58551670     27.79229359     62.64593985      0.91861973
    C     12.47630537     29.01234168     61.25167650      3.94733716
    C     11.06199680     30.41514251     59.78895612      4.13828960
    C      8.86082287     27.77697576     67.70198945      4.07912040
    H      7.71951191     28.97641254     66.34957818      0.92078938
    C     11.04829797     27.02214607     66.96310289      4.10163057
    C     13.46447121     29.00057158     60.23466339      4.13836757
    C     12.04238569     30.39393460     58.79429395      3.94454671
    H     10.13583985     30.96204689     59.61506915      0.91911046
    C     10.07577959     27.06210733     67.92714429      4.07920107
    H      8.10375948     27.79363250     68.48229569      0.92096570
    H     11.97275550     26.47408740     67.13627987      0.92080254
    H     14.39208186     28.45507554     60.40635521      0.91907817
    C     13.27469343     29.66845914     59.02260133      3.94445439
    C     11.86644556     31.07020798     57.54010955      4.10163025
    H     10.22040455     26.54855746     68.87466075      0.92090633
    C     14.26643251     29.65811797     57.98439404      4.10173075
    C     12.83896616     31.03024799     56.57606858      4.07920087
    H     10.94198963     31.61827554     57.36693884      0.92080265
    C     14.05392415     30.31537595     56.80122178      4.07912028
    H     15.19524293     29.11594063     58.15363827      0.92078946
    H     12.69434161     31.54379906     55.62855074      0.92090649
    H     14.81099500     30.29873130     56.02092032      0.92096585
   36
Geometry Step: 39
    C     10.43881225     29.08120417     63.25200518      3.94736473
    C      9.45110712     29.09363891     64.26938846      4.13838719
    C     11.67447264     28.35393901     63.48101662      3.94730182
    C     10.25576003     29.75359806     62.02868542      4.13774203
    C      9.64066609     28.42551078     65.48131344      3.94444421
    H      8.52386288     29.63928752     64.09749277      0.91906091
    C     11.85361392     27.67937104     64.71515032      4.13828855
    C     12.65898378     28.33875165     62.47452785      4.13774167
    C     11.24026510     29.73840152     61.02219221      3.94730150
    H      9.32899056     30.29945288     61.85703561      0.91862214
    C      8.64847199     28.43490160     66.51912066      4.10173731
    C     10.87302491     27.70013844     65.70950256      3.94456325
    H     12.77989187     27.13298725     64.88939808      0.91909378
    H     13.58575543     27.79289547     62.64617454      0.91862242
    C     12.47593234     29.01114773     61.25120845      3.94736521
    C     11.06112131     30.41296554     59.78805632      4.13828869
    C      8.86049592     27.77630671     67.70165860      4.07910266
    H      7.71957164     28.97692403     66.34973114      0.92077844
    C     11.04843746     27.02243064     66.96288996      4.10162296
    C     13.46364231     28.99871762     60.23382693      4.13838672
    C     12.04171251     30.39220317     58.79370579      3.94456365
    H     10.13483704     30.95933317     59.61379602      0.91909358
    C     10.07546436     27.06116379     67.92652736      4.07920266
    H      8.10291327     27.79187334     68.48160607      0.92097567
    H     11.97273397     26.47392541     67.13522745      0.92079756
    H     14.39088845     28.45306473     60.40572171      0.91906125
    C     13.27407637     29.66683546     59.02189592      3.94444456
    C     11.86630655     31.06992346     57.54032280      4.10162292
    H     10.21958186     26.54608967     68.87337275      0.92091393
    C     14.26627740     29.65744999     57.98409146      4.10173698
    C     12.83928150     31.03119097     56.57668551      4.07920229
    H     10.94201453     31.61844138     57.36799493      0.92079757
    C     14.05425101     30.31604443     56.80155213      4.07910256
    H     15.19518259     29.11542891     58.15348361      0.92077858
    H     12.69516405     31.54626804     55.62983937      0.92091421
    H     14.81184036     30.30048996     56.02160835      0.92097581
   36
Geometry Step: 40
    C     10.43874791     29.08124463     63.25202691      3.94738606
    C      9.45107319     29.09359221     64.26942489      4.13838758
    C     11.67444501     28.35391576     63.48112543      3.94731134
    C     10.25576716     29.75362920     62.02862220      4.13774463
    C      9.64070393     28.42554323     65.48134910      3.94444062
    H      8.52398707     29.63924769     64.09751725      0.91903974
    C     11.85361199     27.67926352     64.71519966      4.13829320
    C     12.65897665     28.33871991     62.47459023      4.13774444
    C     11.24029429     29.73842571     61.02208363      3.94731109
    H      9.32894177     30.29947589     61.85699779      0.91863457
    C      8.64844321     28.43487410     66.51907528      4.10173719
    C     10.87309524     27.70018602     65.70958227      3.94455894
    H     12.77991038     27.13304741     64.88932093      0.91906865
    H     13.58580334     27.79287305     62.64621256      0.91863473
    C     12.47599725     29.01110660     61.25118612      3.94738640
    C     11.06112348     30.41307238     59.78800647      4.13829330
    C      8.86042090     27.77633299     67.70164495      4.07910246
    H      7.71963863     28.97697535     66.34974845      0.92076909
    C     11.04841843     27.02235428     66.96288896      4.10162883
    C     13.46367572     28.99876338     60.23378972      4.13838727
    C     12.04164304     30.39215600     58.79362611      3.94455933
    H     10.13481870     30.95927329     59.61387350      0.91906850
    C     10.07544477     27.06117000     67.92651930      4.07919525
    H      8.10279380     27.79187710     68.48164343      0.92098047
    H     11.97278007     26.47399118     67.13525270      0.92079153
    H     14.39076332     28.45310551     60.40569745      0.91903994
    C     13.27403898     29.66680385     59.02186072      3.94444081
    C     11.86632601     31.06999907     57.54032374      4.10162878
    H     10.21962758     26.54601136     68.87338416      0.92092973
    C     14.26630508     29.65747709     57.98413679      4.10173693
    C     12.83930126     31.03118427     56.57669363      4.07919501
    H     10.94196930     31.61837486     57.36796970      0.92079153
    C     14.05432613     30.31601874     56.80156654      4.07910235
    H     15.19511426     29.11537863     58.15346593      0.92076918
    H     12.69511862     31.54634621     55.62982875      0.92092993
    H     14.81195897     30.30048599     56.02157125      0.92098060
   36
Geometry Step: 41
    C     10.43872695     29.08127388     63.25204796      3.94740082
    C      9.45106196     29.09350956     64.26943273      4.13838384
    C     11.67445475     28.35385806     63.48124531      3.94733142
    C     10.25575902     29.75366936     62.02856224      4.13774524
    C      9.64077226     28.42561353     65.48140330      3.94444450
    H      8.52412966     29.63920028     64.09758179      0.91902094
    C     11.85358972     27.67911180     64.71526951      4.13829721
    C     12.65898484     28.33867875     62.47464890      4.13774530
    C     11.24028689     29.73848490     61.02196378      3.94733137
    H      9.32888800     30.29951636     61.85689155      0.91864633
    C      8.64840940     28.43481627     66.51901164      4.10173407
    C     10.87318538     27.70024911     65.70971683      3.94454996
    H     12.77996446     27.13313884     64.88916236      0.91904710
    H     13.58585595     27.79283335     62.64631914      0.91864629
    C     12.47601890     29.01107636     61.25116423      3.94740092
    C     11.06114658     30.41322325     59.78793544      4.13829717
    C      8.86029354     27.77636463     67.70163030      4.07909898
    H      7.71977652     28.97707697     66.34979703      0.92075853
    C     11.04837769     27.02223414     66.96293214      4.10164102
    C     13.46368589     28.99884427     60.23378080      4.13838379
    C     12.04155507     30.39209341     58.79349171      3.94455027
    H     10.13476479     30.95918256     59.61403289      0.91904709
    C     10.07536281     27.06117111     67.92652494      4.07918633
    H      8.10260477     27.79188276     68.48166333      0.92098196
    H     11.97288647     26.47410179     67.13536039      0.92078551
    H     14.39061895     28.45315462     60.40563303      0.91902092
    C     13.27397189     29.66673454     59.02180741      3.94444447
    C     11.86636746     31.07011782     57.54028050      4.10164096
    H     10.21969895     26.54588569     68.87335701      0.92094618
    C     14.26633729     29.65753461     57.98420034      4.10173402
    C     12.83938345     31.03118248     56.57668824      4.07918624
    H     10.94186405     31.61826295     57.36786162      0.92078553
    C     14.05445343     30.31598817     56.80158216      4.07909891
    H     15.19497377     29.11527887     58.15341682      0.92075852
    H     12.69504787     31.54647160     55.62985737      0.92094626
    H     14.81214647     30.30047979     56.02155191      0.92098202
   36
Geometry Step: 42
    C     10.43879090     29.08126811     63.25204164      3.94739546
    C      9.45110323     29.09343707     64.26940306      4.13838139
    C     11.67450149     28.35380054     63.48129051      3.94734691
    C     10.25573492     29.75369319     62.02854628      4.13774636
    C      9.64084637     28.42568742     65.48144415      3.94445117
    H      8.52422170     29.63917085     64.09766255      0.91901654
    C     11.85356926     27.67901512     64.71530382      4.13830598
    C     12.65900903     28.33865405     62.47466383      4.13774660
    C     11.24024177     29.73854361     61.02191834      3.94734705
    H      9.32887823     30.29954751     61.85674884      0.91864515
    C      8.64839626     28.43476830     66.51896119      4.10172934
    C     10.87324640     27.70028779     65.70983792      3.94454317
    H     12.78002634     27.13322325     64.88899607      0.91904074
    H     13.58586512     27.79280260     62.64646215      0.91864495
    C     12.47595520     29.01108136     61.25116996      3.94739532
    C     11.06116799     30.41331960     59.78790008      4.13830585
    C      8.86017768     27.77636896     67.70162120      4.07909968
    H      7.71990591     28.97719811     66.34987037      0.92075513
    C     11.04834413     27.02214172     66.96301184      4.10165039
    C     13.46364351     28.99891507     60.23380980      4.13838156
    C     12.04149636     30.39205509     58.79337083      3.94454334
    H     10.13470307     30.95909897     59.61420011      0.91904084
    C     10.07525336     27.06115148     67.92653410      4.07917851
    H      8.10244289     27.79187933     68.48163612      0.92097555
    H     11.97300589     26.47419946     67.13554203      0.92078429
    H     14.39052542     28.45318550     60.40555223      0.91901634
    C     13.27389915     29.66666121     59.02176737      3.94445102
    C     11.86640153     31.07020889     57.54020086      4.10165031
    H     10.21973921     26.54576971     68.87329196      0.92095426
    C     14.26634920     29.65758280     57.98425063      4.10172941
    C     12.83949309     31.03120175     56.57667937      4.07917860
    H     10.94174540     31.61816395     57.36767936      0.92078432
    C     14.05456909     30.31598479     56.80159200      4.07909958
    H     15.19484206     29.11515934     58.15334306      0.92075509
    H     12.69500830     31.54658740     55.62992373      0.92095423
    H     14.81230699     30.30048253     56.02157954      0.92097558
   36
Geometry Step: 43
    C     10.43890276     29.08125730     63.25199085      3.94737815
    C      9.45122162     29.09334790     64.26935220      4.13837702
    C     11.67455566     28.35375131     63.48128821      3.94736285
    C     10.25570537     29.75371929     62.02852703      4.13774318
    C      9.64097815     28.42576386     65.48149919      3.94446193
    H      8.52433764     29.63914817     64.09778253      0.91902651
    C     11.85354475     27.67893860     64.71531513      4.13831645
    C     12.65903856     28.33862695     62.47468190      4.13774351
    C     11.24018884     29.73859424     61.02192027      3.94736311
    H      9.32890453     30.29958071     61.85651823      0.91863532
    C      8.64839093     28.43473377     66.51891353      4.10172696
    C     10.87334310     27.70031547     65.70998916      3.94452983
    H     12.78014590     27.13333199     64.88876308      0.91904968
    H     13.58583892     27.79276943     62.64669312      0.91863503
    C     12.47584307     29.01109143     61.25121982      3.94737786
    C     11.06119366     30.41339621     59.78788795      4.13831625
    C      8.86003573     27.77632828     67.70160477      4.07910653
    H      7.72006307     28.97741664     66.35000099      0.92075095
    C     11.04833330     27.02203975     66.96315008      4.10166581
    C     13.46352371     28.99900219     60.23385971      4.13837730
    C     12.04140187     30.39202809     58.79322008      3.94452978
    H     10.13458439     30.95899125     59.61443446      0.91904985
    C     10.07509907     27.06108197     67.92654425      4.07917601
    H      8.10223630     27.79185409     68.48153765      0.92096230
    H     11.97316206     26.47434392     67.13590704      0.92077933
    H     14.39040837     28.45320940     60.40543231      0.91902621
    C     13.27376853     29.66658568     59.02171317      3.94446170
    C     11.86641295     31.07030913     57.54006272      4.10166574
    H     10.21973687     26.54560562     68.87315395      0.92095126
    C     14.26635330     29.65761806     57.98429827      4.10172723
    C     12.83964763     31.03127104     56.57666967      4.07917626
    H     10.94159018     31.61801728     57.36731323      0.92077941
    C     14.05471081     30.31602678     56.80160908      4.07910650
    H     15.19468229     29.11494255     58.15321189      0.92075085
    H     12.69501165     31.54675146     55.63006334      0.92095111
    H     14.81251176     30.30050664     56.02167842      0.92096221
   36
Geometry Step: 44
    C     10.43900818     29.08124424     63.25193026      3.94735610
    C      9.45136454     29.09331380     64.26932149      4.13837026
    C     11.67458939     28.35374146     63.48124321      3.94736980
    C     10.25568430     29.75372952     62.02851980      4.13774005
    C      9.64111098     28.42580727     65.48153465      3.94446970
    H      8.52441211     29.63917023     64.09788490      0.91904643
    C     11.85356197     27.67895231     64.71530166      4.13832344
    C     12.65905951     28.33861627     62.47468853      4.13774026
    C     11.24015495     29.73860465     61.02196485      3.94737002
    H      9.32895264     30.29960111     61.85629373      0.91862278
    C      8.64843435     28.43474630     66.51889858      4.10172167
    C     10.87343164     27.70031231     65.71008511      3.94451791
    H     12.78029016     27.13342146     64.88857735      0.91906775
    H     13.58579175     27.79274857     62.64691780      0.91862259
    C     12.47573684     29.01110424     61.25127971      3.94735582
    C     11.06117723     30.41338319     59.78790151      4.13832334
    C      8.85994830     27.77624217     67.70156599      4.07911415
    H      7.72018644     28.97764821     66.35013184      0.92075566
    C     11.04835560     27.02201385     66.96328191      4.10167411
    C     13.46337987     28.99903506     60.23388977      4.13837049
    C     12.04131414     30.39203194     58.79312458      3.94451768
    H     10.13444161     30.95890249     59.61462146      0.91906784
    C     10.07497595     27.06097102     67.92653145      4.07917697
    H      8.10208274     27.79178714     68.48140070      0.92095364
    H     11.97326037     26.47448047     67.13632619      0.92077671
    H     14.39033398     28.45318746     60.40533003      0.91904618
    C     13.27363597     29.66654298     59.02167798      3.94446950
    C     11.86639086     31.07033405     57.53993103      4.10167409
    H     10.21964691     26.54543826     68.87302215      0.92094299
    C     14.26630948     29.65760668     57.98431336      4.10172196
    C     12.83977090     31.03138222     56.57668284      4.07917728
    H     10.94149223     31.61787857     57.36689259      0.92077679
    C     14.05479798     30.31611368     56.80164814      4.07911418
    H     15.19455780     29.11471162     58.15308076      0.92075560
    H     12.69510240     31.54691918     55.63019607      0.92094277
    H     14.81266407     30.30057250     56.02181550      0.92095348
   36
Geometry Step: 45
    C     10.43908947     29.08126279     63.25184407      3.94733596
    C      9.45155598     29.09333033     64.26932207      4.13836108
    C     11.67459250     28.35377843     63.48119052      3.94737320
    C     10.25567435     29.75374392     62.02847852      4.13773320
    C      9.64131410     28.42584311     65.48157696      3.94447709
    H      8.52452249     29.63925111     64.09800631      0.91907124
    C     11.85364877     27.67902829     64.71528393      4.13832753
    C     12.65906917     28.33860169     62.47472930      4.13773314
    C     11.24015081     29.73856779     61.02201711      3.94737319
    H      9.32900734     30.29961975     61.85600009      0.91861129
    C      8.64855016     28.43480969     66.51889990      4.10171560
    C     10.87359271     27.70030582     65.71017966      3.94450156
    H     12.78054464     27.13354563     64.88835438      0.91909004
    H     13.58573855     27.79272907     62.64721154      0.91861134
    C     12.47565419     29.01108559     61.25136490      3.94733586
    C     11.06109130     30.41330827     59.78792014      4.13832758
    C      8.85987330     27.77607559     67.70147767      4.07912243
    H      7.72037446     28.97800087     66.35029652      0.92076555
    C     11.04840587     27.02204281     66.96344282      4.10168312
    C     13.46318761     28.99901754     60.23388817      4.13836115
    C     12.04115281     30.39203964     58.79303062      3.94450115
    H     10.13418986     30.95877904     59.61484620      0.91908999
    C     10.07483042     27.06077669     67.92648043      4.07917546
    H      8.10189435     27.79163525     68.48116316      0.92094941
    H     11.97333016     26.47470923     67.13693189      0.92077305
    H     14.39022446     28.45310587     60.40520886      0.91907115
    C     13.27343230     29.66650834     59.02163555      3.94447694
    C     11.86634065     31.07030451     57.53977022      4.10168322
    H     10.21943355     26.54516125     68.87284909      0.92093336
    C     14.26619376     29.65754487     57.98431256      4.10171586
    C     12.83991655     31.03157708     56.57673433      4.07917571
    H     10.94142252     31.61764666     57.36628471      0.92077311
    C     14.05487263     30.31628096     56.80173668      4.07912258
    H     15.19436953     29.11435893     58.15291587      0.92076555
    H     12.69531658     31.54719711     55.63036985      0.92093313
    H     14.81285106     30.30072290     56.02205306      0.92094919
   36
Geometry Step: 46
    C     10.43913199     29.08133114     63.25178691      3.94732285
    C      9.45174718     29.09345466     64.26937945      4.13835153
    C     11.67458902     28.35387189     63.48117901      3.94737324
    C     10.25566558     29.75375796     62.02841711      4.13773151
    C      9.64155870     28.42591244     65.48163082      3.94448526
    H      8.52465120     29.63942101     64.09815574      0.91908715
    C     11.85384847     27.67918740     64.71529720      4.13833118
    C     12.65907759     28.33858787     62.47479044      4.13773115
    C     11.24015301     29.73847370     61.02202821      3.94737295
    H      9.32903026     30.29961281     61.85571168      0.91860320
    C      8.64875963     28.43491906     66.51893195      4.10170710
    C     10.87380939     27.70034531     65.71026154      3.94448763
    H     12.78090018     27.13373859     64.88814242      0.91909902
    H     13.58571666     27.79273523     62.64749997      0.91860350
    C     12.47561038     29.01101704     61.25142110      3.94732295
    C     11.06089259     30.41315034     59.78790821      4.13833143
    C      8.85979444     27.77584329     67.70136194      4.07912441
    H      7.72067690     28.97842802     66.35041301      0.92078394
    C     11.04843936     27.02216046     66.96359232      4.10168680
    C     13.46299582     28.99889257     60.23382978      4.13835148
    C     12.04093542     30.39200157     58.79294912      3.94448710
    H     10.13383752     30.95858680     59.61506018      0.91909880
    C     10.07465764     27.06050377     67.92641298      4.07917098
    H      8.10163142     27.79139271     68.48084846      0.92094988
    H     11.97335535     26.47504044     67.13753693      0.92077877
    H     14.39009666     28.45293502     60.40505962      0.91908721
    C     13.27318684     29.66644018     59.02158129      3.94448514
    C     11.86630697     31.07018707     57.53962074      4.10168701
    H     10.21914494     26.54471999     68.87267259      0.92092578
    C     14.26598492     29.65743706     57.98428127      4.10170728
    C     12.84008933     31.03185076     56.57680211      4.07917115
    H     10.94139668     31.61731214     57.36567686      0.92077876
    C     14.05495101     30.31651349     56.80185267      4.07912462
    H     15.19406769     29.11393111     58.15279940      0.92078398
    H     12.69560577     31.54763978     55.63054667      0.92092558
    H     14.81311279     30.30096387     56.02236766      0.92094970
   36
Geometry Step: 47
    C     10.43917690     29.08150664     63.25182483      3.94731894
    C      9.45204810     29.09382473     64.26962220      4.13833969
    C     11.67465251     28.35410685     63.48123513      3.94738144
    C     10.25563435     29.75373143     62.02835796      4.13772986
    C      9.64190335     28.42612703     65.48177381      3.94448880
    H      8.52494540     29.63980058     64.09841816      0.91909392
    C     11.85423927     27.67962342     64.71541629      4.13833060
    C     12.65910868     28.33861444     62.47485011      4.13772929
    C     11.24008816     29.73823698     61.02197202      3.94738100
    H      9.32901129     30.29954297     61.85534288      0.91860330
    C      8.64906045     28.43520006     66.51901732      4.10170233
    C     10.87415655     27.70053451     65.71036518      3.94447338
    H     12.78144005     27.13424243     64.88795501      0.91909659
    H     13.58573653     27.79280453     62.64786841      0.91860379
    C     12.47556456     29.01084034     61.25138279      3.94731924
    C     11.06050273     30.41271677     59.78779142      4.13833104
    C      8.85961740     27.77545858     67.70115394      4.07912450
    H      7.72113211     28.97908599     66.35048311      0.92079894
    C     11.04855060     27.02241230     66.96376283      4.10169626
    C     13.46269484     28.99852212     60.23358654      4.13833948
    C     12.04058716     30.39181359     58.79284598      3.94447281
    H     10.13330011     30.95808437     59.61524927      0.91909616
    C     10.07440100     27.06003235     67.92624306      4.07916128
    H      8.10112428     27.79094039     68.48031936      0.92095020
    H     11.97342471     26.47549555     67.13820031      0.92078404
    H     14.38980370     28.45255425     60.40479728      0.91909416
    C     13.27284134     29.66622611     59.02143792      3.94448871
    C     11.86619526     31.06993605     57.53945009      4.10169655
    H     10.21872023     26.54384658     68.87234857      0.92092609
    C     14.26568545     29.65715805     57.98419703      4.10170235
    C     12.84034605     31.03232350     56.57697220      4.07916140
    H     10.94132558     31.61685336     57.36500835      0.92078397
    C     14.05512799     30.31689817     56.80206054      4.07912478
    H     15.19361360     29.11327181     58.15272932      0.92079906
    H     12.69603099     31.54851544     55.63087052      0.92092596
    H     14.81361919     30.30141410     56.02289567      0.92095007
   36
Geometry Step: 48
    C     10.43908385     29.08151746     63.25189821      3.94733394
    C      9.45198309     29.09392249     64.26972462      4.13834249
    C     11.67464284     28.35412957     63.48126028      3.94738182
    C     10.25563988     29.75371202     62.02838081      4.13773204
    C      9.64187107     28.42608779     65.48177423      3.94448407
    H      8.52491210     29.63982551     64.09843725      0.91907556
    C     11.85433702     27.67968907     64.71544283      4.13832415
    C     12.65910327     28.33863410     62.47482822      4.13773160
    C     11.24009748     29.73821276     61.02194728      3.94738145
    H      9.32898059     30.29951381     61.85543265      0.91861385
    C      8.64912459     28.43527892     66.51907823      4.10170937
    C     10.87416158     27.70052194     65.71029506      3.94448048
    H     12.78145356     27.13422709     64.88800947      0.91907948
    H     13.58576651     27.79283395     62.64777820      0.91861425
    C     12.47565807     29.01082898     61.25131015      3.94733426
    C     11.06040479     30.41265172     59.78776567      4.13832447
    C      8.85961520     27.77540876     67.70114426      4.07912266
    H      7.72121545     28.97910639     66.35039512      0.92079615
    C     11.04856930     27.02252937     66.96375209      4.10169227
    C     13.46276082     28.99842541     60.23348493      4.13834230
    C     12.04058119     30.39182583     58.79291581      3.94448009
    H     10.13328573     30.95810041     59.61519441      0.91907916
    C     10.07441791     27.05997629     67.92624279      4.07916001
    H      8.10108154     27.79090469     68.48027514      0.92095281
    H     11.97337215     26.47555827     67.13814814      0.92078876
    H     14.38983714     28.45252864     60.40477783      0.91907578
    C     13.27287333     29.66626451     59.02143730      3.94448403
    C     11.86617609     31.06982037     57.53946049      4.10169251
    H     10.21866796     26.54375506     68.87241870      0.92093016
    C     14.26562252     29.65707895     57.98413632      4.10170933
    C     12.84032915     31.03237999     56.57697210      4.07916008
    H     10.94137639     31.61679116     57.36505965      0.92078868
    C     14.05513058     30.31694723     56.80206985      4.07912284
    H     15.19353178     29.11325025     58.15281776      0.92079624
    H     12.69608270     31.54860749     55.63079940      0.92093011
    H     14.81366307     30.30144998     56.02293928      0.92095277
   36
Geometry Step: 49
    C     10.43898423     29.08154238     63.25200644      3.94735277
    C      9.45188486     29.09404093     64.26984186      4.13834636
    C     11.67465449     28.35415999     63.48131477      3.94738608
    C     10.25564374     29.75367833     62.02841679      4.13773486
    C      9.64183439     28.42607986     65.48177341      3.94447956
    H      8.52486255     29.63986023     64.09849625      0.91904853
    C     11.85444255     27.67975167     64.71549326      4.13831459
    C     12.65909959     28.33866775     62.47479317      4.13773470
    C     11.24008622     29.73818088     61.02189338      3.94738590
    H      9.32893339     30.29946296     61.85558560      0.91862798
    C      8.64920071     28.43536340     66.51913508      4.10171948
    C     10.87417447     27.70055107     65.71023631      3.94449137
    H     12.78145667     27.13422510     64.88809488      0.91905671
    H     13.58581226     27.79288540     62.64762478      0.91862817
    C     12.47575861     29.01080311     61.25120292      3.94735295
    C     11.06029903     30.41258930     59.78771561      4.13831465
    C      8.85958721     27.77536503     67.70113003      4.07911868
    H      7.72136904     28.97913059     66.35027952      0.92078916
    C     11.04857985     27.02264576     66.96373867      4.10169043
    C     13.46286015     28.99830814     60.23336884      4.13834633
    C     12.04056797     30.39179613     58.79297398      3.94449125
    H     10.13328083     30.95810378     59.61510857      0.91905665
    C     10.07442025     27.05992326     67.92624676      4.07915663
    H      8.10099727     27.79084519     68.48022590      0.92095483
    H     11.97334922     26.47564593     67.13803909      0.92079410
    H     14.38988603     28.45249362     60.40471814      0.91904862
    C     13.27291033     29.66627141     59.02143817      3.94447954
    C     11.86616511     31.06970550     57.53947336      4.10169054
    H     10.21861082     26.54361848     68.87249029      0.92093782
    C     14.26554748     29.65699365     57.98407947      4.10171943
    C     12.84032692     31.03243332     56.57696764      4.07915666
    H     10.94139697     31.61670437     57.36516828      0.92079402
    C     14.05515919     30.31699023     56.80208381      4.07911871
    H     15.19337945     29.11322507     58.15293389      0.92078919
    H     12.69613909     31.54874448     55.63072687      0.92093785
    H     14.81374870     30.30150981     56.02298790      0.92095488
   36
Geometry Step: 50
    C     10.43899193     29.08154699     63.25202828      3.94735351
    C      9.45186810     29.09404369     64.26983914      4.13834815
    C     11.67467579     28.35415982     63.48133199      3.94738775
    C     10.25564108     29.75366632     62.02842582      4.13773708
    C      9.64183235     28.42610703     65.48177538      3.94448161
    H      8.52486063     29.63985686     64.09852499      0.91904208
    C     11.85443836     27.67973971     64.71550239      4.13831464
    C     12.65910231     28.33867935     62.47478406      4.13773707
    C     11.24006563     29.73818123     61.02187629      3.94738771
    H      9.32893227     30.29944718     61.85562242      0.91862840
    C      8.64920385     28.43536264     66.51912507      4.10171643
    C     10.87418438     27.70058050     65.71025563      3.94449566
    H     12.78143262     27.13423636     64.88810906      0.91905227
    H     13.58581283     27.79290146     62.64758792      0.91862847
    C     12.47575133     29.01079810     61.25118129      3.94735357
    C     11.06030313     30.41260098     59.78770597      4.13831462
    C      8.85956480     27.77537452     67.70111641      4.07911745
    H      7.72141229     28.97914464     66.35027660      0.92078811
    C     11.04858109     27.02263050     66.96374629      4.10168972
    C     13.46287696     28.99830540     60.23337187      4.13834821
    C     12.04055869     30.39176646     58.79295452      3.94449557
    H     10.13330415     30.95809324     59.61509444      0.91905228
    C     10.07440597     27.05993291     67.92624164      4.07915365
    H      8.10097530     27.79082040     68.48022532      0.92095479
    H     11.97339858     26.47565201     67.13803249      0.92079575
    H     14.38988727     28.45249733     60.40468914      0.91904210
    C     13.27291297     29.66624411     59.02143653      3.94448156
    C     11.86616391     31.06972072     57.53946560      4.10168979
    H     10.21859069     26.54359753     68.87248692      0.92094289
    C     14.26554415     29.65699395     57.98408928      4.10171643
    C     12.84034135     31.03242355     56.57697270      4.07915371
    H     10.94134717     31.61669847     57.36517532      0.92079569
    C     14.05518185     30.31698090     56.80209755      4.07911743
    H     15.19333581     29.11321131     58.15293683      0.92078811
    H     12.69615918     31.54876527     55.63073032      0.92094290
    H     14.81377079     30.30153467     56.02298841      0.92095484
   36
Geometry Step: 51
    C     10.43903501     29.08156038     63.25207988      3.94735154
    C      9.45183220     29.09403445     64.26982750      4.13835569
    C     11.67473232     28.35417646     63.48136493      3.94738729
    C     10.25563750     29.75362048     62.02845722      4.13774241
    C      9.64184431     28.42618032     65.48179562      3.94448492
    H      8.52482513     29.63984302     64.09862571      0.91903169
    C     11.85440118     27.67970361     64.71551895      4.13831699
    C     12.65910595     28.33872374     62.47475238      4.13774278
    C     11.24001101     29.73816551     61.02184377      3.94738762
    H      9.32893533     30.29938432     61.85578204      0.91862591
    C      8.64920735     28.43536554     66.51909712      4.10171285
    C     10.87421462     27.70067476     65.71033658      3.94450553
    H     12.78134851     27.13424204     64.88817609      0.91904797
    H     13.58580846     27.79296486     62.64742826      0.91862563
    C     12.47570924     29.01078375     61.25113032      3.94735128
    C     11.06033971     30.41263619     59.78768791      4.13831673
    C      8.85950161     27.77538643     67.70109220      4.07912022
    H      7.72154818     28.97922364     66.35025838      0.92078218
    C     11.04860531     27.02257287     66.96378613      4.10169175
    C     13.46291312     28.99831499     60.23338449      4.13835597
    C     12.04052993     30.39167153     58.79287314      3.94450558
    H     10.13338611     30.95809001     59.61502766      0.91904822
    C     10.07435750     27.05996063     67.92623871      4.07914707
    H      8.10091237     27.79072561     68.48020230      0.92094866
    H     11.97358749     26.47568198     67.13802536      0.92079674
    H     14.38992098     28.45251186     60.40458754      0.91903151
    C     13.27290260     29.66617066     59.02141723      3.94448484
    C     11.86613980     31.06977814     57.53942538      4.10169167
    H     10.21848530     26.54354997     68.87245140      0.92095049
    C     14.26553995     29.65698944     57.98411651      4.10171295
    C     12.84039027     31.03239547     56.57697542      4.07914719
    H     10.94115676     31.61666895     57.36518434      0.92079677
    C     14.05524599     30.31696961     56.80212210      4.07912009
    H     15.19319895     29.11313312     58.15295512      0.92078209
    H     12.69626443     31.54881220     55.63076597      0.92095047
    H     14.81383430     30.30162978     56.02301114      0.92094869
   36
Geometry Step: 52
    C     10.43904039     29.08156168     63.25208038      3.94735041
    C      9.45184228     29.09403222     64.26983416      4.13835479
    C     11.67472705     28.35418681     63.48136376      3.94738456
    C     10.25564317     29.75361429     62.02845861      4.13774143
    C      9.64185880     28.42617863     65.48180597      3.94448396
    H      8.52481251     29.63984500     64.09863691      0.91903627
    C     11.85439487     27.67971211     64.71552031      4.13831624
    C     12.65910019     28.33872992     62.47475095      4.13774174
    C     11.24001601     29.73815528     61.02184491      3.94738483
    H      9.32893077     30.29937633     61.85580872      0.91862675
    C      8.64921385     28.43536985     66.51910126      4.10171174
    C     10.87421694     27.70067947     65.71034656      3.94450347
    H     12.78134895     27.13423206     64.88819167      0.91905257
    H     13.58581329     27.79297260     62.64740163      0.91862652
    C     12.47570368     29.01078266     61.25112975      3.94735021
    C     11.06034586     30.41262772     59.78768663      4.13831603
    C      8.85950376     27.77537611     67.70109335      4.07912162
    H      7.72155140     28.97924828     66.35024953      0.92078414
    C     11.04861377     27.02257782     66.96379006      4.10169184
    C     13.46290307     28.99831738     60.23337779      4.13835501
    C     12.04052730     30.39166690     58.79286320      3.94450351
    H     10.13338594     30.95810002     59.61501215      0.91905276
    C     10.07435950     27.05995226     67.92623907      4.07914827
    H      8.10090178     27.79071087     68.48019103      0.92094843
    H     11.97359698     26.47569743     67.13802782      0.92079547
    H     14.38993387     28.45250963     60.40457633      0.91903614
    C     13.27288788     29.66617248     59.02140677      3.94448390
    C     11.86613128     31.06977317     57.53942148      4.10169179
    H     10.21846230     26.54354275     68.87244337      0.92094794
    C     14.26553344     29.65698507     57.98411234      4.10171182
    C     12.84038826     31.03240387     56.57697507      4.07914836
    H     10.94114727     31.61665338     57.36518204      0.92079550
    C     14.05524388     30.31697997     56.80212089      4.07912151
    H     15.19319595     29.11310837     58.15296400      0.92078407
    H     12.69628741     31.54881938     55.63077390      0.92094793
    H     14.81384501     30.30164458     56.02302241      0.92094845
   36
Geometry Step: 53
    C     10.43946762     29.08242396     63.25250150      3.94734127
    C      9.45260700     29.09551529     64.27056480      4.13835524
    C     11.67521776     28.35534439     63.48184679      3.94737185
    C     10.25556189     29.75328887     62.02835267      4.13774351
    C      9.64275149     28.42748242     65.48243002      3.94448268
    H      8.52549715     29.64148100     64.09955080      0.91904726
    C     11.85528894     27.68143347     64.71625457      4.13831018
    C     12.65918114     28.33905372     62.47485686      4.13774371
    C     11.23952413     29.73699790     61.02136202      3.94737195
    H      9.32871196     30.29882292     61.85571967      0.91863350
    C      8.64976832     28.43611617     66.51935029      4.10170056
    C     10.87503002     27.70202650     65.71100630      3.94449190
    H     12.78245583     27.13617602     64.88893840      0.91907080
    H     13.58603371     27.79352459     62.64749111      0.91863335
    C     12.47527622     29.00992081     61.25070902      3.94734127
    C     11.05945019     30.41090627     59.78695266      4.13831001
    C      8.85906109     27.77447562     67.70062037      4.07913848
    H      7.72246338     28.98063968     66.35035910      0.92080141
    C     11.04892898     27.02301001     66.96402906      4.10170030
    C     13.46213973     28.99683676     60.23264824      4.13835514
    C     12.03971235     30.39032037     58.79220335      3.94449266
    H     10.13227961     30.95615883     59.61426728      0.91907097
    C     10.07380233     27.05881078     67.92571493      4.07914099
    H      8.09975274     27.78880092     68.47906547      0.92093935
    H     11.97402994     26.47634966     67.13836886      0.92078947
    H     14.38925071     28.45087251     60.40366149      0.91904730
    C     13.27199479     29.66487013     59.02078284      3.94448285
    C     11.86581514     31.06934181     57.53918225      4.10170059
    H     10.21696999     26.54101689     68.87128307      0.92094116
    C     14.26497918     29.65623732     57.98386252      4.10170043
    C     12.84094588     31.03354687     56.57749935      4.07914035
    H     10.94071064     31.61599864     57.36485668      0.92078902
    C     14.05568724     30.31788072     56.80259332      4.07913835
    H     15.19228561     29.11171510     58.15285445      0.92080142
    H     12.69777981     31.55134701     55.63193380      0.92094127
    H     14.81499459     30.30355293     56.02414605      0.92093941
   36
Geometry Step: 54
    C     10.43946572     29.08242401     63.25250192      3.94734376
    C      9.45260606     29.09551612     64.27057012      4.13835618
    C     11.67523029     28.35533244     63.48185591      3.94737342
    C     10.25555424     29.75329442     62.02835313      4.13774435
    C      9.64274213     28.42749525     65.48244132      3.94448554
    H      8.52550858     29.64146240     64.09956062      0.91904440
    C     11.85530207     27.68142688     64.71626538      4.13831264
    C     12.65918873     28.33904831     62.47485635      4.13774448
    C     11.23951176     29.73700969     61.02135284      3.94737351
    H      9.32870825     30.29882107     61.85573416      0.91863164
    C      8.64975422     28.43612373     66.51935189      4.10170176
    C     10.87503812     27.70202166     65.71101186      3.94449575
    H     12.78243821     27.13616985     64.88894929      0.91906464
    H     13.58603734     27.79352639     62.64747663      0.91863155
    C     12.47527808     29.00992090     61.25070856      3.94734373
    C     11.05943713     30.41091296     59.78694183      4.13831262
    C      8.85906349     27.77447586     67.70061291      4.07913857
    H      7.72245997     28.98064476     66.35036760      0.92079735
    C     11.04893196     27.02301268     66.96403785      4.10169792
    C     13.46214063     28.99683590     60.23264271      4.13835613
    C     12.03970463     30.39032505     58.79219786      3.94449631
    H     10.13229734     30.95616502     59.61425640      0.91906472
    C     10.07380340     27.05880937     67.92570864      4.07914045
    H      8.09975894     27.78879015     68.47905697      0.92094073
    H     11.97402952     26.47635548     67.13837559      0.92078963
    H     14.38923922     28.45089113     60.40365167      0.91904444
    C     13.27200410     29.66485720     59.02077148      3.94448563
    C     11.86581255     31.06933862     57.53917422      4.10169775
    H     10.21696118     26.54101958     68.87127569      0.92094119
    C     14.26499319     29.65622992     57.98386099      4.10170168
    C     12.84094443     31.03354843     56.57750565      4.07914014
    H     10.94071094     31.61599314     57.36484923      0.92078958
    C     14.05568478     30.31788039     56.80260078      4.07913855
    H     15.19228884     29.11171009     58.15284591      0.92079737
    H     12.69778867     31.55134420     55.63194122      0.92094113
    H     14.81498830     30.30356380     56.02415471      0.92094075
   36
Geometry Step: 55
    C     10.43948333     29.08241259     63.25249816      3.94735228
    C      9.45262891     29.09551405     64.27058155      4.13835845
    C     11.67528285     28.35527954     63.48188410      3.94737595
    C     10.25552697     29.75332356     62.02835368      4.13774716
    C      9.64273535     28.42755356     65.48247944      3.94449545
    H      8.52556154     29.64137405     64.09959161      0.91903542
    C     11.85535141     27.68140655     64.71631449      4.13832437
    C     12.65921603     28.33901996     62.47485545      4.13774715
    C     11.23945905     29.73706223     61.02132402      3.94737605
    H      9.32867894     30.29882190     61.85579725      0.91862499
    C      8.64969972     28.43614885     66.51936007      4.10170742
    C     10.87505501     27.70201148     65.71102820      3.94450149
    H     12.78238271     27.13612006     64.88899897      0.91904604
    H     13.58606631     27.79352519     62.64741361      0.91862500
    C     12.47526046     29.00993317     61.25071170      3.94735229
    C     11.05938889     30.41093353     59.78689293      4.13832435
    C      8.85907357     27.77447825     67.70058734      4.07913254
    H      7.72242212     28.98067672     66.35039853      0.92078626
    C     11.04894727     27.02303278     66.96406272      4.10169835
    C     13.46211732     28.99683753     60.23263049      4.13835841
    C     12.03968889     30.39033442     58.79218298      3.94450142
    H     10.13235393     30.95621440     59.61420689      0.91904604
    C     10.07379789     27.05880101     67.92569234      4.07914177
    H      8.09978453     27.78873354     68.47903438      0.92094768
    H     11.97401124     26.47639587     67.13839077      0.92078367
    H     14.38918618     28.45097960     60.40362082      0.91903554
    C     13.27201082     29.66479831     59.02073289      3.94449534
    C     11.86579772     31.06931748     57.53915150      4.10169789
    H     10.21692547     26.54102549     68.87126199      0.92094068
    C     14.26504739     29.65620572     57.98385304      4.10170753
    C     12.84094903     31.03355672     56.57752260      4.07914183
    H     10.94073021     31.61595354     57.36483018      0.92078412
    C     14.05567348     30.31787793     56.80262626      4.07913261
    H     15.19232571     29.11167845     58.15281477      0.92078626
    H     12.69782455     31.55133787     55.63195511      0.92094053
    H     14.81496215     30.30362095     56.02417831      0.92094768
   36
Geometry Step: 56
    C     10.43949307     29.08240855     63.25249837      3.94735089
    C      9.45264200     29.09550773     64.27058390      4.13835659
    C     11.67528645     28.35527693     63.48188576      3.94737574
    C     10.25552789     29.75332161     62.02835956      4.13774568
    C      9.64274264     28.42755810     65.48248788      3.94449471
    H      8.52555664     29.64136434     64.09959957      0.91903933
    C     11.85534504     27.68140851     64.71632001      4.13832273
    C     12.65921508     28.33902200     62.47484948      4.13774561
    C     11.23945537     29.73706487     61.02132234      3.94737574
    H      9.32867104     30.29882192     61.85581532      0.91862608
    C      8.64969853     28.43615260     66.51935803      4.10170598
    C     10.87505350     27.70201510     65.71103620      3.94450064
    H     12.78237812     27.13610411     64.88901433      0.91904973
    H     13.58607428     27.79352503     62.64739556      0.91862614
    C     12.47525062     29.00993736     61.25071147      3.94735091
    C     11.05939512     30.41093163     59.78688759      4.13832285
    C      8.85907330     27.77447639     67.70058558      4.07913540
    H      7.72241279     28.98068821     66.35040515      0.92078727
    C     11.04894772     27.02303690     66.96406760      4.10169571
    C     13.46210428     28.99684375     60.23262807      4.13835654
    C     12.03969036     30.39033095     58.79217478      3.94450064
    H     10.13235883     30.95623029     59.61419158      0.91904965
    C     10.07379923     27.05880005     67.92568723      4.07914056
    H      8.09978469     27.78872065     68.47903064      0.92094687
    H     11.97401699     26.47640134     67.13839841      0.92078479
    H     14.38919117     28.45098924     60.40361287      0.91903942
    C     13.27200352     29.66479372     59.02072445      3.94449463
    C     11.86579727     31.06931330     57.53914668      4.10169515
    H     10.21691243     26.54102638     68.87125894      0.92094131
    C     14.26504852     29.65620208     57.98385501      4.10170602
    C     12.84094749     31.03355772     56.57752780      4.07914068
    H     10.94072468     31.61594801     57.36482264      0.92078524
    C     14.05567371     30.31787973     56.80262806      4.07913552
    H     15.19233501     29.11166697     58.15280812      0.92078732
    H     12.69783758     31.55133684     55.63195824      0.92094113
    H     14.81496194     30.30363395     56.02418218      0.92094684
   36
Geometry Step: 57
    C     10.43960262     29.08236113     63.25250431      3.94735040
    C      9.45277102     29.09545513     64.27060701      4.13834250
    C     11.67538170     28.35520477     63.48191765      3.94737169
    C     10.25551327     29.75333163     62.02841151      4.13773497
    C      9.64281005     28.42766351     65.48258211      3.94450175
    H      8.52555808     29.64117901     64.09970974      0.91905935
    C     11.85534721     27.68139337     64.71641007      4.13832455
    C     12.65922946     28.33901328     62.47479680      4.13773456
    C     11.23935943     29.73713697     61.02128997      3.94737129
    H      9.32857096     30.29881300     61.85607532      0.91862873
    C      8.64964463     28.43621181     66.51936097      4.10169818
    C     10.87506616     27.70205825     65.71112257      3.94449699
    H     12.78227421     27.13589087     64.88921638      0.91906066
    H     13.58617406     27.79353258     62.64713569      0.91862911
    C     12.47514077     29.00998651     61.25070471      3.94735041
    C     11.05939381     30.41094723     59.78679843      4.13832507
    C      8.85906450     27.77446562     67.70053473      4.07913529
    H      7.72232081     28.98083864     66.35048254      0.92078772
    C     11.04897898     27.02309216     66.96413160      4.10168189
    C     13.46197514     28.99689507     60.23260399      4.13834253
    C     12.03967804     30.39028800     58.79208915      3.94449669
    H     10.13246596     30.95644323     59.61399012      0.91906024
    C     10.07377931     27.05878498     67.92565420      4.07913966
    H      8.09978476     27.78852467     68.47899989      0.92095598
    H     11.97407960     26.47650623     67.13848021      0.92078551
    H     14.38919009     28.45117415     60.40350282      0.91905928
    C     13.27193590     29.66468741     59.02062961      3.94450176
    C     11.86576594     31.06925718     57.53908447      4.10168108
    H     10.21674025     26.54102018     68.87125291      0.92094441
    C     14.26510193     29.65614400     57.98385197      4.10169827
    C     12.84096560     31.03357256     56.57756201      4.07914008
    H     10.94066485     31.61584341     57.36473763      0.92078602
    C     14.05568065     30.31789042     56.80267897      4.07913564
    H     15.19242567     29.11151706     58.15273030      0.92078777
    H     12.69800967     31.55134145     55.63196521      0.92094413
    H     14.81496097     30.30383158     56.02421506      0.92095587
   36
Geometry Step: 58
    C     10.43960565     29.08235743     63.25251438      3.94734966
    C      9.45276336     29.09546267     64.27061273      4.13835062
    C     11.67537593     28.35521262     63.48191189      3.94736747
    C     10.25550928     29.75333482     62.02841269      4.13774168
    C      9.64281415     28.42765369     65.48257997      3.94449568
    H      8.52556657     29.64117243     64.09970177      0.91905229
    C     11.85535448     27.68138744     64.71640663      4.13833191
    C     12.65923364     28.33900980     62.47479596      4.13774149
    C     11.23936543     29.73712927     61.02129586      3.94736731
    H      9.32857047     30.29881224     61.85608227      0.91862513
    C      8.64964784     28.43622398     66.51936222      4.10170450
    C     10.87506300     27.70207588     65.71112250      3.94449221
    H     12.78227637     27.13588022     64.88922148      0.91905687
    H     13.58617401     27.79353366     62.64712853      0.91862531
    C     12.47513822     29.00998956     61.25069488      3.94734973
    C     11.05938695     30.41095300     59.78680171      4.13833194
    C      8.85904968     27.77446246     67.70053788      4.07913407
    H      7.72233192     28.98083279     66.35048728      0.92078400
    C     11.04899030     27.02309103     66.96412736      4.10169427
    C     13.46198270     28.99688749     60.23259855      4.13835059
    C     12.03968115     30.39027014     58.79208963      3.94449206
    H     10.13246325     30.95645430     59.61398489      0.91905675
    C     10.07375924     27.05878996     67.92566890      4.07914583
    H      8.09978420     27.78851750     68.47899672      0.92095284
    H     11.97408291     26.47650839     67.13848402      0.92077922
    H     14.38918144     28.45118078     60.40351080      0.91905229
    C     13.27193190     29.66469718     59.02063193      3.94449566
    C     11.86575412     31.06925910     57.53908777      4.10169430
    H     10.21674082     26.54101683     68.87125355      0.92094189
    C     14.26509876     29.65613156     57.98385077      4.10170467
    C     12.84098641     31.03356710     56.57754726      4.07914576
    H     10.94066156     31.61584121     57.36473385      0.92077919
    C     14.05569535     30.31789378     56.80267590      4.07913410
    H     15.19241460     29.11152295     58.15272551      0.92078398
    H     12.69800881     31.55134489     55.63196455      0.92094187
    H     14.81496157     30.30383886     56.02421806      0.92095286
   36
Geometry Step: 59
    C     10.43960146     29.08236028     63.25251869      3.94735049
    C      9.45276488     29.09546495     64.27061738      4.13834887
    C     11.67537849     28.35521336     63.48191135      3.94736834
    C     10.25551021     29.75333345     62.02841852      4.13773988
    C      9.64281001     28.42765095     65.48257894      3.94449550
    H      8.52557025     29.64116852     64.09969368      0.91905251
    C     11.85535578     27.68138590     64.71640244      4.13832837
    C     12.65923277     28.33901104     62.47479030      4.13773976
    C     11.23936320     29.73712852     61.02129666      3.94736819
    H      9.32856888     30.29881239     61.85608853      0.91862663
    C      8.64965537     28.43623029     66.51936615      4.10170223
    C     10.87507084     27.70208441     65.71112397      3.94449576
    H     12.78227846     27.13586988     64.88922615      0.91905840
    H     13.58617533     27.79353366     62.64712215      0.91862675
    C     12.47514252     29.00998632     61.25069081      3.94735051
    C     11.05938554     30.41095455     59.78680597      4.13832843
    C      8.85903895     27.77446088     67.70053644      4.07913637
    H      7.72233906     28.98082986     66.35049064      0.92078488
    C     11.04898274     27.02309518     66.96413394      4.10169074
    C     13.46198124     28.99688515     60.23259404      4.13834889
    C     12.03967336     30.39026173     58.79208776      3.94449571
    H     10.13246090     30.95646488     59.61398015      0.91905829
    C     10.07375605     27.05879314     67.92566777      4.07914368
    H      8.09977985     27.78851093     68.47899631      0.92095075
    H     11.97408784     26.47650982     67.13848779      0.92078280
    H     14.38917764     28.45118472     60.40351889      0.91905248
    C     13.27193610     29.66469986     59.02063313      3.94449547
    C     11.86576177     31.06925511     57.53908092      4.10169064
    H     10.21674032     26.54101303     68.87125608      0.92094392
    C     14.26509119     29.65612510     57.98384687      4.10170232
    C     12.84098965     31.03356387     56.57754824      4.07914368
    H     10.94065643     31.61583990     57.36472998      0.92078281
    C     14.05570637     30.31789529     56.80267749      4.07913643
    H     15.19240754     29.11152588     58.15272211      0.92078490
    H     12.69800913     31.55134869     55.63196206      0.92094388
    H     14.81496592     30.30384552     56.02421837      0.92095075
   36
Geometry Step: 60
    C     10.43960177     29.08236087     63.25252321      3.94735068
    C      9.45276522     29.09546742     64.27062105      4.13834937
    C     11.67537940     28.35521526     63.48190938      3.94736780
    C     10.25550993     29.75333379     62.02842216      4.13774037
    C      9.64281050     28.42764810     65.48257878      3.94449449
    H      8.52557291     29.64116511     64.09968600      0.91905155
    C     11.85535897     27.68138308     64.71640062      4.13832907
    C     12.65923307     28.33901059     62.47478682      4.13774030
    C     11.23936249     29.73712665     61.02129884      3.94736771
    H      9.32856800     30.29881221     61.85609478      0.91862649
    C      8.64966008     28.43623618     66.51936992      4.10170288
    C     10.87507521     27.70209212     65.71112633      3.94449586
    H     12.78227907     27.13586074     64.88923005      0.91905800
    H     13.58617607     27.79353391     62.64711581      0.91862657
    C     12.47514228     29.00998544     61.25068643      3.94735068
    C     11.05938238     30.41095739     59.78680775      4.13832908
    C      8.85903222     27.77445807     67.70053577      4.07913530
    H      7.72234506     28.98082795     66.35049353      0.92078438
    C     11.04898259     27.02309839     66.96413595      4.10169206
    C     13.46198092     28.99688262     60.23259051      4.13834941
    C     12.03966893     30.39025405     58.79208530      3.94449582
    H     10.13246011     30.95647422     59.61397620      0.91905794
    C     10.07374933     27.05879525     67.92567145      4.07914456
    H      8.09977444     27.78850471     68.47899631      0.92095058
    H     11.97408964     26.47651292     67.13849153      0.92078286
    H     14.38917492     28.45118812     60.40352658      0.91905151
    C     13.27193561     29.66470271     59.02063338      3.94449445
    C     11.86576192     31.06925205     57.53907868      4.10169199
    H     10.21673933     26.54101025     68.87125681      0.92094379
    C     14.26508649     29.65611903     57.98384316      4.10170299
    C     12.84099652     31.03356167     56.57754443      4.07914455
    H     10.94065449     31.61583690     57.36472615      0.92078285
    C     14.05571326     30.31789813     56.80267822      4.07913535
    H     15.19240161     29.11152778     58.15271918      0.92078438
    H     12.69800996     31.55135149     55.63196134      0.92094374
    H     14.81497134     30.30385184     56.02421827      0.92095058
   36
Geometry Step: 61
    C     10.43960230     29.08236188     63.25252665      3.94735097
    C      9.45276652     29.09546913     64.27062398      4.13834913
    C     11.67538134     28.35521578     63.48190872      3.94736771
    C     10.25551006     29.75333391     62.02842595      4.13774021
    C      9.64281092     28.42764678     65.48257959      3.94449394
    H      8.52557467     29.64116216     64.09967869      0.91905131
    C     11.85536141     27.68138101     64.71639922      4.13832859
    C     12.65923296     28.33901038     62.47478315      4.13774016
    C     11.23936068     29.73712617     61.02129965      3.94736764
    H      9.32856717     30.29881212     61.85610087      0.91862671
    C      8.64966475     28.43624094     66.51937296      4.10170267
    C     10.87508019     27.70209803     65.71112854      3.94449678
    H     12.78227927     27.13585209     64.88923350      0.91905815
    H     13.58617683     27.79353404     62.64710966      0.91862676
    C     12.47514178     29.00998421     61.25068312      3.94735096
    C     11.05937992     30.41095948     59.78680917      4.13832859
    C      8.85902637     27.77445521     67.70053610      4.07913578
    H      7.72234984     28.98082701     66.35049603      0.92078438
    C     11.04898083     27.02310204     66.96413960      4.10169174
    C     13.46197962     28.99688087     60.23258767      4.13834919
    C     12.03966393     30.39024819     58.79208297      3.94449678
    H     10.13245980     30.95648302     59.61397272      0.91905811
    C     10.07374592     27.05879641     67.92567276      4.07914408
    H      8.09976873     27.78849873     68.47899620      0.92094995
    H     11.97409086     26.47651636     67.13849529      0.92078373
    H     14.38917315     28.45119105     60.40353391      0.91905127
    C     13.27193518     29.66470402     59.02063266      3.94449390
    C     11.86576370     31.06924850     57.53907485      4.10169167
    H     10.21673793     26.54100764     68.87125748      0.92094426
    C     14.26508182     29.65611414     57.98384014      4.10170276
    C     12.84100002     31.03356046     56.57754301      4.07914408
    H     10.94065316     31.61583354     57.36472229      0.92078372
    C     14.05571925     30.31790098     56.80267796      4.07913581
    H     15.19239691     29.11152871     58.15271666      0.92078437
    H     12.69801121     31.55135412     55.63196065      0.92094421
    H     14.81497708     30.30385790     56.02421831      0.92094995
   36
Geometry Step: 62
    C     10.43960374     29.08236255     63.25252980      3.94735123
    C      9.45276791     29.09547056     64.27062642      4.13834897
    C     11.67538337     28.35521602     63.48190819      3.94736747
    C     10.25551020     29.75333433     62.02842916      4.13774023
    C      9.64281231     28.42764630     65.48258069      3.94449356
    H      8.52557603     29.64115937     64.09967176      0.91905107
    C     11.85536395     27.68137896     64.71639860      4.13832864
    C     12.65923283     28.33900989     62.47478004      4.13774021
    C     11.23935874     29.73712598     61.02130031      3.94736742
    H      9.32856645     30.29881202     61.85610690      0.91862678
    C      8.64966868     28.43624478     66.51937626      4.10170263
    C     10.87508443     27.70210308     65.71113087      3.94449711
    H     12.78227902     27.13584395     64.88923655      0.91905808
    H     13.58617751     27.79353413     62.64710359      0.91862682
    C     12.47514034     29.00998338     61.25068005      3.94735122
    C     11.05937737     30.41096157     59.78680980      4.13832863
    C      8.85902167     27.77445245     67.70053645      4.07913557
    H      7.72235390     28.98082671     66.35049823      0.92078439
    C     11.04898044     27.02310563     66.96414245      4.10169204
    C     13.46197822     28.99687940     60.23258531      4.13834903
    C     12.03965965     30.39024318     58.79208056      3.94449713
    H     10.13245997     30.95649129     59.61396966      0.91905806
    C     10.07374250     27.05879702     67.92567464      4.07914421
    H      8.09976284     27.78849288     68.47899601      0.92094974
    H     11.97409135     26.47652020     67.13849910      0.92078402
    H     14.38917177     28.45119381     60.40354086      0.91905103
    C     13.27193377     29.66470449     59.02063161      3.94449352
    C     11.86576410     31.06924499     57.53907187      4.10169197
    H     10.21673633     26.54100524     68.87125778      0.92094431
    C     14.26507790     29.65611019     57.98383688      4.10170272
    C     12.84100351     31.03355979     56.57754105      4.07914421
    H     10.94065258     31.61582978     57.36471836      0.92078401
    C     14.05572406     30.31790374     56.80267766      4.07913559
    H     15.19239293     29.11152899     58.15271444      0.92078438
    H     12.69801269     31.55135652     55.63196033      0.92094426
    H     14.81498299     30.30386382     56.02421843      0.92094975
   36
Geometry Step: 63
    C     10.43960555     29.08236318     63.25253255      3.94735148
    C      9.45276950     29.09547173     64.27062847      4.13834876
    C     11.67538558     28.35521584     63.48190808      3.94736730
    C     10.25551042     29.75333481     62.02843219      4.13774020
    C      9.64281395     28.42764658     65.48258221      3.94449328
    H      8.52557718     29.64115667     64.09966519      0.91905094
    C     11.85536633     27.68137712     64.71639840      4.13832860
    C     12.65923262     28.33900935     62.47477708      4.13774019
    C     11.23935659     29.73712621     61.02130051      3.94736726
    H      9.32856577     30.29881197     61.85611284      0.91862686
    C      8.64967219     28.43624808     66.51937919      4.10170254
    C     10.87508840     27.70210744     65.71113310      3.94449747
    H     12.78227854     27.13583615     64.88923929      0.91905804
    H     13.58617818     27.79353416     62.64709761      0.91862689
    C     12.47513853     29.00998263     61.25067737      3.94735146
    C     11.05937498     30.41096344     59.78681003      4.13832857
    C      8.85901758     27.77444971     67.70053724      4.07913568
    H      7.72235745     28.98082686     66.35050025      0.92078444
    C     11.04898002     27.02310927     66.96414554      4.10169213
    C     13.46197661     28.99687820     60.23258331      4.13834882
    C     12.03965564     30.39023885     58.79207828      3.94449750
    H     10.13246040     30.95649920     59.61396691      0.91905803
    C     10.07373989     27.05879727     67.92567601      4.07914404
    H      8.09975699     27.78848715     68.47899561      0.92094945
    H     11.97409164     26.47652415     67.13850298      0.92078435
    H     14.38917062     28.45119648     60.40354745      0.91905090
    C     13.27193210     29.66470421     59.02063014      3.94449323
    C     11.86576453     31.06924142     57.53906868      4.10169206
    H     10.21673460     26.54100290     68.87125802      0.92094447
    C     14.26507439     29.65610680     57.98383397      4.10170262
    C     12.84100617     31.03355951     56.57753962      4.07914404
    H     10.94065223     31.61582589     57.36471437      0.92078435
    C     14.05572825     30.31790649     56.80267691      4.07913570
    H     15.19238946     29.11152882     58.15271241      0.92078444
    H     12.69801432     31.55135886     55.63196005      0.92094442
    H     14.81498887     30.30386962     56.02421877      0.92094946
   36
Geometry Step: 64
    C     10.43960766     29.08236370     63.25253509      3.94735172
    C      9.45277120     29.09547272     64.27063026      4.13834852
    C     11.67538785     28.35521545     63.48190817      3.94736712
    C     10.25551070     29.75333539     62.02843497      4.13774019
    C      9.64281587     28.42764744     65.48258393      3.94449310
    H      8.52557821     29.64115401     64.09965895      0.91905086
    C     11.85536863     27.68137540     64.71639857      4.13832864
    C     12.65923235     28.33900872     62.47477437      4.13774019
    C     11.23935437     29.73712664     61.02130052      3.94736709
    H      9.32856513     30.29881195     61.85611872      0.91862693
    C      8.64967529     28.43625087     66.51938208      4.10170245
    C     10.87509200     27.70211134     65.71113533      3.94449768
    H     12.78227788     27.13582864     64.88924177      0.91905797
    H     13.58617883     27.79353415     62.64709171      0.91862695
    C     12.47513641     29.00998202     61.25067490      3.94735170
    C     11.05937266     30.41096521     59.78680989      4.13832861
    C      8.85901400     27.77444712     67.70053805      4.07913566
    H      7.72236062     28.98082734     66.35050211      0.92078454
    C     11.04897996     27.02311288     66.96414843      4.10169230
    C     13.46197490     28.99687718     60.23258157      4.13834859
    C     12.03965200     30.39023499     58.79207602      3.94449772
    H     10.13246102     30.95650680     59.61396443      0.91905796
    C     10.07373751     27.05879727     67.92567741      4.07914401
    H      8.09975120     27.78848150     68.47899506      0.92094927
    H     11.97409178     26.47652820     67.13850693      0.92078457
    H     14.38916957     28.45119911     60.40355370      0.91905082
    C     13.27193017     29.66470334     59.02062846      3.94449305
    C     11.86576458     31.06923786     57.53906570      4.10169222
    H     10.21673279     26.54100061     68.87125818      0.92094453
    C     14.26507129     29.65610393     57.98383111      4.10170253
    C     12.84100860     31.03355948     56.57753817      4.07914401
    H     10.94065204     31.61582190     57.36471031      0.92078456
    C     14.05573190     30.31790908     56.80267614      4.07913567
    H     15.19238635     29.11152831     58.15271054      0.92078453
    H     12.69801604     31.55136116     55.63195986      0.92094448
    H     14.81499469     30.30387534     56.02421928      0.92094928
   36
Geometry Step: 65
    C     10.43960994     29.08236417     63.25253740      3.94735195
    C      9.45277298     29.09547358     64.27063184      4.13834829
    C     11.67539015     28.35521489     63.48190843      3.94736696
    C     10.25551101     29.75333602     62.02843760      4.13774017
    C      9.64281790     28.42764875     65.48258584      3.94449296
    H      8.52557920     29.64115134     64.09965304      0.91905081
    C     11.85537084     27.68137379     64.71639899      4.13832869
    C     12.65923205     28.33900805     62.47477180      4.13774018
    C     11.23935210     29.73712723     61.02130032      3.94736694
    H      9.32856451     30.29881197     61.85612454      0.91862699
    C      8.64967807     28.43625334     66.51938475      4.10170237
    C     10.87509533     27.70211490     65.71113752      3.94449785
    H     12.78227712     27.13582137     64.88924405      0.91905789
    H     13.58617946     27.79353409     62.64708587      0.91862701
    C     12.47513411     29.00998148     61.25067263      3.94735193
    C     11.05937045     30.41096685     59.78680950      4.13832865
    C      8.85901078     27.77444463     67.70053897      4.07913570
    H      7.72236353     28.98082808     66.35050386      0.92078463
    C     11.04898000     27.02311644     66.96415134      4.10169242
    C     13.46197310     28.99687629     60.23258002      4.13834835
    C     12.03964864     30.39023146     58.79207381      3.94449790
    H     10.13246176     30.95651415     59.61396217      0.91905789
    C     10.07373541     27.05879710     67.92567867      4.07914391
    H      8.09974553     27.78847591     68.47899434      0.92094908
    H     11.97409191     26.47653225     67.13851094      0.92078476
    H     14.38916858     28.45120174     60.40355963      0.91905078
    C     13.27192811     29.66470202     59.02062658      3.94449292
    C     11.86576454     31.06923433     57.53906272      4.10169235
    H     10.21673093     26.54099832     68.87125833      0.92094459
    C     14.26506853     29.65610140     57.98382845      4.10170244
    C     12.84101072     31.03355962     56.57753686      4.07914391
    H     10.94065188     31.61581789     57.36470620      0.92078476
    C     14.05573519     30.31791158     56.80267524      4.07913570
    H     15.19238350     29.11152756     58.15270879      0.92078462
    H     12.69801781     31.55136344     55.63195968      0.92094455
    H     14.81500039     30.30388099     56.02421998      0.92094909
   36
Geometry Step: 66
    C     10.43961233     29.08236457     63.25253957      3.94735217
    C      9.45277483     29.09547434     64.27063327      4.13834804
    C     11.67539244     28.35521423     63.48190881      3.94736680
    C     10.25551136     29.75333670     62.02844007      4.13774016
    C      9.64282002     28.42765040     65.48258785      3.94449287
    H      8.52558018     29.64114868     64.09964741      0.91905079
    C     11.85537295     27.68137229     64.71639960      4.13832876
    C     12.65923171     28.33900734     62.47476937      4.13774017
    C     11.23934983     29.73712793     61.02130000      3.94736679
    H      9.32856390     30.29881203     61.85613031      0.91862705
    C      8.64968056     28.43625554     66.51938730      4.10170229
    C     10.87509841     27.70211821     65.71113969      3.94449797
    H     12.78227627     27.13581432     64.88924615      0.91905781
    H     13.58618007     27.79353399     62.64708009      0.91862706
    C     12.47513171     29.00998101     61.25067051      3.94735214
    C     11.05936834     30.41096840     59.78680891      4.13832872
    C      8.85900784     27.77444226     67.70053987      4.07913570
    H      7.72236622     28.98082901     66.35050552      0.92078473
    C     11.04898018     27.02311994     66.96415420      4.10169255
    C     13.46197123     28.99687550     60.23257862      4.13834811
    C     12.03964552     30.39022817     58.79207162      3.94449802
    H     10.13246260     30.95652128     59.61396008      0.91905781
    C     10.07373348     27.05879682     67.92567990      4.07914385
    H      8.09973999     27.78847036     68.47899346      0.92094893
    H     11.97409206     26.47653631     67.13851499      0.92078491
    H     14.38916759     28.45120437     60.40356528      0.91905076
    C     13.27192597     29.66470035     59.02062458      3.94449283
    C     11.86576435     31.06923086     57.53905981      4.10169248
    H     10.21672905     26.54099603     68.87125846      0.92094463
    C     14.26506604     29.65609915     57.98382591      4.10170235
    C     12.84101268     31.03355988     56.57753560      4.07914385
    H     10.94065171     31.61581388     57.36470204      0.92078491
    C     14.05573818     30.31791396     56.80267436      4.07913571
    H     15.19238086     29.11152661     58.15270712      0.92078473
    H     12.69801962     31.55136572     55.63195952      0.92094459
    H     14.81500596     30.30388659     56.02422082      0.92094894
   36
Geometry Step: 67
    C     10.43961478     29.08236495     63.25254159      3.94735237
    C      9.45277672     29.09547504     64.27063458      4.13834781
    C     11.67539472     28.35521349     63.48190929      3.94736666
    C     10.25551173     29.75333740     62.02844243      4.13774014
    C      9.64282219     28.42765232     65.48258995      3.94449281
    H      8.52558116     29.64114601     64.09964205      0.91905078
    C     11.85537497     27.68137087     64.71640036      4.13832883
    C     12.65923134     28.33900661     62.47476705      4.13774016
    C     11.23934758     29.73712869     61.02129958      3.94736665
    H      9.32856331     30.29881213     61.85613602      0.91862711
    C      8.64968282     28.43625754     66.51938970      4.10170221
    C     10.87510131     27.70212135     65.71114185      3.94449805
    H     12.78227537     27.13580744     64.88924810      0.91905772
    H     13.58618067     27.79353385     62.64707436      0.91862712
    C     12.47512924     29.00998059     61.25066852      3.94735235
    C     11.05936631     30.41096985     59.78680818      4.13832879
    C      8.85900512     27.77443999     67.70054076      4.07913572
    H      7.72236873     28.98083009     66.35050711      0.92078483
    C     11.04898044     27.02312338     66.96415703      4.10169267
    C     13.46196932     28.99687478     60.23257733      4.13834788
    C     12.03964261     30.39022506     58.79206945      3.94449811
    H     10.13246350     30.95652823     59.61395816      0.91905773
    C     10.07373169     27.05879646     67.92568109      4.07914378
    H      8.09973459     27.78846486     68.47899245      0.92094880
    H     11.97409226     26.47654035     67.13851908      0.92078505
    H     14.38916660     28.45120702     60.40357065      0.91905075
    C     13.27192378     29.66469842     59.02062250      3.94449277
    C     11.86576409     31.06922745     57.53905693      4.10169260
    H     10.21672715     26.54099374     68.87125859      0.92094467
    C     14.26506378     29.65609710     57.98382352      4.10170227
    C     12.84101449     31.03356022     56.57753438      4.07914378
    H     10.94065150     31.61580988     57.36469784      0.92078505
    C     14.05574095     30.31791624     56.80267349      4.07913573
    H     15.19237840     29.11152551     58.15270553      0.92078482
    H     12.69802145     31.55136800     55.63195936      0.92094463
    H     14.81501139     30.30389215     56.02422182      0.92094881
   36
Geometry Step: 68
    C     10.43961727     29.08236529     63.25254350      3.94735257
    C      9.45277865     29.09547569     64.27063581      4.13834758
    C     11.67539697     28.35521272     63.48190982      3.94736652
    C     10.25551211     29.75333812     62.02844468      4.13774012
    C      9.64282437     28.42765443     65.48259210      3.94449276
    H      8.52558214     29.64114333     64.09963694      0.91905079
    C     11.85537691     27.68136954     64.71640123      4.13832891
    C     12.65923097     28.33900585     62.47476484      4.13774014
    C     11.23934535     29.73712949     61.02129909      3.94736651
    H      9.32856274     30.29881227     61.85614167      0.91862716
    C      8.64968489     28.43625939     66.51939197      4.10170214
    C     10.87510404     27.70212434     65.71114401      3.94449812
    H     12.78227442     27.13580074     64.88924992      0.91905764
    H     13.58618126     27.79353367     62.64706870      0.91862717
    C     12.47512674     29.00998021     61.25066664      3.94735255
    C     11.05936437     30.41097123     59.78680734      4.13832887
    C      8.85900258     27.77443781     67.70054160      4.07913574
    H      7.72237109     28.98083129     66.35050863      0.92078492
    C     11.04898077     27.02312673     66.96415984      4.10169278
    C     13.46196737     28.99687411     60.23257612      4.13834764
    C     12.03963985     30.39022209     58.79206728      3.94449817
    H     10.13246445     30.95653500     59.61395636      0.91905764
    C     10.07373000     27.05879604     67.92568225      4.07914372
    H      8.09972931     27.78845940     68.47899131      0.92094868
    H     11.97409252     26.47654435     67.13852321      0.92078517
    H     14.38916560     28.45120966     60.40357578      0.91905076
    C     13.27192158     29.66469630     59.02062036      3.94449272
    C     11.86576376     31.06922411     57.53905408      4.10169271
    H     10.21672525     26.54099143     68.87125873      0.92094470
    C     14.26506172     29.65609522     57.98382125      4.10170220
    C     12.84101620     31.03356062     56.57753320      4.07914372
    H     10.94065123     31.61580590     57.36469362      0.92078517
    C     14.05574353     30.31791842     56.80267266      4.07913573
    H     15.19237608     29.11152429     58.15270400      0.92078491
    H     12.69802329     31.55137029     55.63195919      0.92094466
    H     14.81501669     30.30389766     56.02422294      0.92094869
   36
Geometry Step: 69
    C     10.43961976     29.08236561     63.25254531      3.94735276
    C      9.45278061     29.09547629     64.27063696      4.13834736
    C     11.67539918     28.35521191     63.48191041      3.94736638
    C     10.25551250     29.75333886     62.02844684      4.13774011
    C      9.64282656     28.42765668     65.48259428      3.94449273
    H      8.52558314     29.64114065     64.09963206      0.91905080
    C     11.85537877     27.68136827     64.71640219      4.13832900
    C     12.65923058     28.33900509     62.47476271      4.13774013
    C     11.23934315     29.73713032     61.02129855      3.94736638
    H      9.32856217     30.29881244     61.85614727      0.91862721
    C      8.64968679     28.43626112     66.51939412      4.10170207
    C     10.87510663     27.70212723     65.71114617      3.94449817
    H     12.78227343     27.13579419     64.88925162      0.91905756
    H     13.58618183     27.79353346     62.64706309      0.91862722
    C     12.47512424     29.00997986     61.25066486      3.94735274
    C     11.05936252     30.41097253     59.78680641      4.13832896
    C      8.85900018     27.77443572     67.70054240      4.07913575
    H      7.72237331     28.98083260     66.35051011      0.92078501
    C     11.04898115     27.02313000     66.96416263      4.10169288
    C     13.46196539     28.99687347     60.23257497      4.13834742
    C     12.03963724     30.39021922     58.79206511      3.94449822
    H     10.13246544     30.95654162     59.61395469      0.91905757
    C     10.07372839     27.05879559     67.92568338      4.07914366
    H      8.09972417     27.78845397     68.47899006      0.92094857
    H     11.97409285     26.47654833     67.13852735      0.92078528
    H     14.38916459     28.45121231     60.40358067      0.91905078
    C     13.27191937     29.66469403     59.02061819      3.94449270
    C     11.86576337     31.06922085     57.53905126      4.10169281
    H     10.21672335     26.54098911     68.87125888      0.92094472
    C     14.26505983     29.65609345     57.98381911      4.10170213
    C     12.84101781     31.03356106     56.57753204      4.07914366
    H     10.94065090     31.61580195     57.36468937      0.92078528
    C     14.05574595     30.31792052     56.80267187      4.07913574
    H     15.19237388     29.11152297     58.15270252      0.92078500
    H     12.69802514     31.55137258     55.63195902      0.92094468
    H     14.81502187     30.30390314     56.02422418      0.92094858
   36
Geometry Step: 70
    C     10.43962225     29.08236591     63.25254704      3.94735294
    C      9.45278259     29.09547688     64.27063807      4.13834714
    C     11.67540134     28.35521109     63.48191102      3.94736625
    C     10.25551290     29.75333961     62.02844892      4.13774009
    C      9.64282875     28.42765904     65.48259648      3.94449271
    H      8.52558414     29.64113798     64.09962739      0.91905082
    C     11.85538055     27.68136708     64.71640320      4.13832908
    C     12.65923019     28.33900432     62.47476065      4.13774012
    C     11.23934100     29.73713116     61.02129797      3.94736625
    H      9.32856162     30.29881264     61.85615282      0.91862726
    C      8.64968854     28.43626277     66.51939616      4.10170201
    C     10.87510912     27.70213004     65.71114834      3.94449820
    H     12.78227241     27.13578779     64.88925322      0.91905748
    H     13.58618239     27.79353322     62.64705754      0.91862727
    C     12.47512174     29.00997953     61.25066316      3.94735292
    C     11.05936074     30.41097377     59.78680543      4.13832904
    C      8.85899791     27.77443369     67.70054314      4.07913576
    H      7.72237543     28.98083399     66.35051154      0.92078509
    C     11.04898158     27.02313319     66.96416540      4.10169297
    C     13.46196339     28.99687286     60.23257387      4.13834720
    C     12.03963473     30.39021643     58.79206294      3.94449826
    H     10.13246646     30.95654808     59.61395312      0.91905749
    C     10.07372686     27.05879511     67.92568450      4.07914361
    H      8.09971915     27.78844857     68.47898872      0.92094847
    H     11.97409324     26.47655228     67.13853152      0.92078538
    H     14.38916357     28.45121495     60.40358535      0.91905080
    C     13.27191717     29.66469166     59.02061600      3.94449268
    C     11.86576294     31.06921767     57.53904846      4.10169290
    H     10.21672144     26.54098679     68.87125903      0.92094474
    C     14.26505807     29.65609178     57.98381707      4.10170206
    C     12.84101935     31.03356152     56.57753090      4.07914361
    H     10.94065051     31.61579803     57.36468511      0.92078538
    C     14.05574826     30.31792255     56.80267115      4.07913575
    H     15.19237180     29.11152156     58.15270109      0.92078508
    H     12.69802700     31.55137488     55.63195885      0.92094470
    H     14.81502691     30.30390858     56.02422552      0.92094848
   36
Geometry Step: 71
    C     10.43962473     29.08236620     63.25254869      3.94735312
    C      9.45278458     29.09547744     64.27063914      4.13834693
    C     11.67540347     28.35521027     63.48191166      3.94736613
    C     10.25551330     29.75334036     62.02845092      4.13774008
    C      9.64283093     28.42766147     65.48259868      3.94449270
    H      8.52558515     29.64113532     64.09962293      0.91905085
    C     11.85538226     27.68136594     64.71640426      4.13832917
    C     12.65922979     28.33900355     62.47475867      4.13774010
    C     11.23933889     29.73713200     61.02129736      3.94736613
    H      9.32856109     30.29881288     61.85615831      0.91862731
    C      8.64969018     28.43626434     66.51939810      4.10170195
    C     10.87511152     27.70213277     65.71115051      3.94449823
    H     12.78227137     27.13578153     64.88925472      0.91905741
    H     13.58618293     27.79353294     62.64705205      0.91862731
    C     12.47511925     29.00997922     61.25066153      3.94735310
    C     11.05935904     30.41097494     59.78680440      4.13832913
    C      8.85899574     27.77443174     67.70054381      4.07913576
    H      7.72237744     28.98083544     66.35051293      0.92078516
    C     11.04898204     27.02313631     66.96416816      4.10169305
    C     13.46196137     28.99687228     60.23257281      4.13834699
    C     12.03963232     30.39021372     58.79206077      3.94449828
    H     10.13246751     30.95655440     59.61395164      0.91905742
    C     10.07372539     27.05879462     67.92568560      4.07914355
    H      8.09971425     27.78844322     68.47898728      0.92094838
    H     11.97409370     26.47655619     67.13853569      0.92078547
    H     14.38916254     28.45121759     60.40358982      0.91905083
    C     13.27191497     29.66468922     59.02061380      3.94449267
    C     11.86576247     31.06921457     57.53904568      4.10169299
    H     10.21671953     26.54098447     68.87125919      0.92094475
    C     14.26505644     29.65609018     57.98381514      4.10170200
    C     12.84102083     31.03356200     56.57752979      4.07914356
    H     10.94065005     31.61579414     57.36468084      0.92078547
    C     14.05575045     30.31792451     56.80267048      4.07913576
    H     15.19236981     29.11152010     58.15269970      0.92078515
    H     12.69802886     31.55137718     55.63195867      0.92094472
    H     14.81503184     30.30391399     56.02422695      0.92094839
   36
Geometry Step: 72
    C     10.43962718     29.08236648     63.25255028      3.94735329
    C      9.45278659     29.09547799     64.27064017      4.13834673
    C     11.67540555     28.35520945     63.48191231      3.94736601
    C     10.25551370     29.75334112     62.02845286      4.13774006
    C      9.64283309     28.42766395     65.48260088      3.94449270
    H      8.52558617     29.64113267     64.09961865      0.91905088
    C     11.85538391     27.68136486     64.71640535      4.13832926
    C     12.65922940     28.33900277     62.47475675      4.13774009
    C     11.23933682     29.73713284     61.02129674      3.94736601
    H      9.32856057     30.29881315     61.85616373      0.91862735
    C      8.64969171     28.43626586     66.51939994      4.10170189
    C     10.87511384     27.70213544     65.71115268      3.94449824
    H     12.78227030     27.13577541     64.88925615      0.91905734
    H     13.58618345     27.79353264     62.64704662      0.91862736
    C     12.47511679     29.00997891     61.25065996      3.94735327
    C     11.05935740     30.41097606     59.78680333      4.13832922
    C      8.85899365     27.77442984     67.70054443      4.07913577
    H      7.72237936     28.98083695     66.35051429      0.92078523
    C     11.04898253     27.02313935     66.96417089      4.10169313
    C     13.46195935     28.99687170     60.23257178      4.13834679
    C     12.03962999     30.39021106     58.79205860      3.94449830
    H     10.13246859     30.95656059     59.61395025      0.91905735
    C     10.07372397     27.05879412     67.92568669      4.07914351
    H      8.09970946     27.78843789     68.47898577      0.92094830
    H     11.97409423     26.47656006     67.13853988      0.92078555
    H     14.38916150     28.45122021     60.40359411      0.91905086
    C     13.27191279     29.66468672     59.02061161      3.94449266
    C     11.86576197     31.06921153     57.53904292      4.10169307
    H     10.21671763     26.54098214     68.87125935      0.92094477
    C     14.26505491     29.65608863     57.98381330      4.10170194
    C     12.84102226     31.03356249     56.57752869      4.07914351
    H     10.94064953     31.61579028     57.36467657      0.92078556
    C     14.05575256     30.31792642     56.80266987      4.07913576
    H     15.19236790     29.11151857     58.15269835      0.92078522
    H     12.69803072     31.55137948     55.63195849      0.92094473
    H     14.81503665     30.30391936     56.02422847      0.92094831
   36
Geometry Step: 73
    C     10.43962961     29.08236675     63.25255180      3.94735345
    C      9.45278860     29.09547854     64.27064118      4.13834654
    C     11.67540759     28.35520864     63.48191297      3.94736589
    C     10.25551410     29.75334188     62.02845474      4.13774004
    C      9.64283524     28.42766646     65.48260306      3.94449270
    H      8.52558718     29.64113004     64.09961456      0.91905092
    C     11.85538549     27.68136383     64.71640647      4.13832935
    C     12.65922900     28.33900200     62.47475489      4.13774007
    C     11.23933479     29.73713367     61.02129610      3.94736589
    H      9.32856006     30.29881345     61.85616910      0.91862739
    C      8.64969316     28.43626734     66.51940170      4.10170184
    C     10.87511610     27.70213807     65.71115486      3.94449825
    H     12.78226922     27.13576940     64.88925749      0.91905727
    H     13.58618396     27.79353230     62.64704125      0.91862740
    C     12.47511436     29.00997862     61.25065845      3.94735343
    C     11.05935582     30.41097713     59.78680224      4.13832931
    C      8.85899165     27.77442798     67.70054498      4.07913578
    H      7.72238121     28.98083851     66.35051560      0.92078529
    C     11.04898306     27.02314232     66.96417361      4.10169320
    C     13.46195732     28.99687113     60.23257078      4.13834659
    C     12.03962772     30.39020845     58.79205642      3.94449831
    H     10.13246969     30.95656665     59.61394893      0.91905728
    C     10.07372259     27.05879361     67.92568775      4.07914346
    H      8.09970477     27.78843260     68.47898419      0.92094822
    H     11.97409481     26.47656391     67.13854406      0.92078563
    H     14.38916047     28.45122282     60.40359821      0.91905090
    C     13.27191063     29.66468420     59.02060942      3.94449266
    C     11.86576144     31.06920857     57.53904019      4.10169314
    H     10.21671572     26.54097982     68.87125951      0.92094478
    C     14.26505346     29.65608714     57.98381154      4.10170189
    C     12.84102364     31.03356299     56.57752761      4.07914346
    H     10.94064896     31.61578646     57.36467229      0.92078563
    C     14.05575459     30.31792828     56.80266932      4.07913576
    H     15.19236608     29.11151700     58.15269703      0.92078528
    H     12.69803259     31.55138178     55.63195830      0.92094475
    H     14.81504137     30.30392469     56.02423005      0.92094824
   36
Geometry Step: 74
    C     10.43963201     29.08236703     63.25255328      3.94735361
    C      9.45279061     29.09547908     64.27064216      4.13834635
    C     11.67540958     28.35520784     63.48191364      3.94736578
    C     10.25551450     29.75334264     62.02845656      4.13774003
    C      9.64283738     28.42766899     65.48260524      3.94449270
    H      8.52558820     29.64112742     64.09961063      0.91905095
    C     11.85538702     27.68136284     64.71640760      4.13832944
    C     12.65922861     28.33900123     62.47475309      4.13774006
    C     11.23933281     29.73713449     61.02129546      3.94736578
    H      9.32855957     30.29881377     61.85617440      0.91862743
    C      8.64969453     28.43626879     66.51940338      4.10170179
    C     10.87511830     27.70214065     65.71115704      3.94449826
    H     12.78226812     27.13576352     64.88925877      0.91905721
    H     13.58618444     27.79353194     62.64703594      0.91862744
    C     12.47511195     29.00997833     61.25065699      3.94735359
    C     11.05935430     30.41097815     59.78680114      4.13832940
    C      8.85898971     27.77442617     67.70054547      4.07913578
    H      7.72238297     28.98084011     66.35051688      0.92078534
    C     11.04898361     27.02314522     66.96417631      4.10169327
    C     13.46195529     28.99687057     60.23256979      4.13834640
    C     12.03962551     30.39020589     58.79205424      3.94449832
    H     10.13247080     30.95657259     59.61394769      0.91905722
    C     10.07372126     27.05879310     67.92568881      4.07914342
    H      8.09970018     27.78842735     68.47898255      0.92094815
    H     11.97409545     26.47656772     67.13854825      0.92078570
    H     14.38915943     28.45122540     60.40360215      0.91905093
    C     13.27190848     29.66468166     59.02060725      3.94449266
    C     11.86576089     31.06920567     57.53903747      4.10169321
    H     10.21671382     26.54097750     68.87125968      0.92094479
    C     14.26505210     29.65608567     57.98380986      4.10170183
    C     12.84102498     31.03356349     56.57752655      4.07914342
    H     10.94064832     31.61578266     57.36466802      0.92078571
    C     14.05575654     30.31793010     56.80266884      4.07913577
    H     15.19236433     29.11151540     58.15269575      0.92078534
    H     12.69803446     31.55138407     55.63195812      0.92094476
    H     14.81504598     30.30392999     56.02423170      0.92094817
   36
Geometry Step: 75
    C     10.43963437     29.08236730     63.25255470      3.94735376
    C      9.45279262     29.09547961     64.27064313      4.13834617
    C     11.67541153     28.35520705     63.48191431      3.94736567
    C     10.25551489     29.75334340     62.02845833      4.13774001
    C      9.64283950     28.42767153     65.48260739      3.94449270
    H      8.52558921     29.64112484     64.09960686      0.91905099
    C     11.85538850     27.68136190     64.71640873      4.13832953
    C     12.65922822     28.33900045     62.47475133      4.13774004
    C     11.23933087     29.73713529     61.02129481      3.94736567
    H      9.32855910     30.29881413     61.85617965      0.91862747
    C      8.64969583     28.43627020     66.51940498      4.10170174
    C     10.87512046     27.70214319     65.71115922      3.94449826
    H     12.78226701     27.13575776     64.88925998      0.91905716
    H     13.58618492     27.79353154     62.64703070      0.91862747
    C     12.47510958     29.00997804     61.25065558      3.94735374
    C     11.05935283     30.41097912     59.78680002      4.13832949
    C      8.85898783     27.77442440     67.70054591      4.07913579
    H      7.72238468     28.98084174     66.35051813      0.92078539
    C     11.04898419     27.02314806     66.96417899      4.10169333
    C     13.46195326     28.99687002     60.23256882      4.13834622
    C     12.03962334     30.39020337     58.79205207      3.94449832
    H     10.13247193     30.95657841     59.61394651      0.91905717
    C     10.07371996     27.05879259     67.92568984      4.07914337
    H      8.09969569     27.78842213     68.47898085      0.92094809
    H     11.97409615     26.47657151     67.13855243      0.92078577
    H     14.38915840     28.45122796     60.40360592      0.91905097
    C     13.27190635     29.66467911     59.02060509      3.94449267
    C     11.86576031     31.06920283     57.53903477      4.10169327
    H     10.21671191     26.54097519     68.87125985      0.92094479
    C     14.26505080     29.65608424     57.98380826      4.10170178
    C     12.84102628     31.03356399     56.57752550      4.07914338
    H     10.94064764     31.61577889     57.36466376      0.92078577
    C     14.05575844     30.31793188     56.80266840      4.07913577
    H     15.19236264     29.11151376     58.15269450      0.92078539
    H     12.69803633     31.55138635     55.63195794      0.92094476
    H     14.81505050     30.30393525     56.02423340      0.92094811
   36
Geometry Step: 76
    C     10.43963671     29.08236758     63.25255609      3.94735391
    C      9.45279463     29.09548015     64.27064409      4.13834599
    C     11.67541344     28.35520627     63.48191498      3.94736556
    C     10.25551529     29.75334416     62.02846006      4.13773999
    C      9.64284160     28.42767406     65.48260953      3.94449271
    H      8.52559022     29.64112228     64.09960324      0.91905103
    C     11.85538993     27.68136101     64.71640988      4.13832961
    C     12.65922783     28.33899968     62.47474961      4.13774003
    C     11.23932897     29.73713609     61.02129416      3.94736556
    H      9.32855864     30.29881452     61.85618483      0.91862751
    C      8.64969707     28.43627159     66.51940653      4.10170169
    C     10.87512257     27.70214569     65.71116140      3.94449827
    H     12.78226589     27.13575211     64.88926113      0.91905710
    H     13.58618537     27.79353112     62.64702551      0.91862751
    C     12.47510725     29.00997775     61.25065421      3.94735389
    C     11.05935141     30.41098006     59.78679890      4.13832957
    C      8.85898600     27.77442266     67.70054629      4.07913579
    H      7.72238632     28.98084340     66.35051935      0.92078544
    C     11.04898479     27.02315084     66.96418165      4.10169339
    C     13.46195123     28.99686946     60.23256786      4.13834605
    C     12.03962122     30.39020088     58.79204989      3.94449832
    H     10.13247306     30.95658412     59.61394540      0.91905711
    C     10.07371870     27.05879207     67.92569086      4.07914333
    H      8.09969128     27.78841694     68.47897911      0.92094803
    H     11.97409689     26.47657526     67.13855660      0.92078583
    H     14.38915737     28.45123049     60.40360954      0.91905102
    C     13.27190423     29.66467656     59.02060295      3.94449268
    C     11.86575971     31.06920005     57.53903210      4.10169334
    H     10.21671001     26.54097289     68.87126001      0.92094480
    C     14.26504956     29.65608284     57.98380672      4.10170173
    C     12.84102754     31.03356449     56.57752448      4.07914334
    H     10.94064691     31.61577515     57.36465951      0.92078583
    C     14.05576028     30.31793363     56.80266803      4.07913577
    H     15.19236100     29.11151209     58.15269328      0.92078543
    H     12.69803820     31.55138862     55.63195776      0.92094477
    H     14.81505493     30.30394048     56.02423515      0.92094805
   36
Geometry Step: 77
    C     10.43963900     29.08236786     63.25255743      3.94735405
    C      9.45279663     29.09548069     64.27064504      4.13834582
    C     11.67541530     28.35520551     63.48191565      3.94736546
    C     10.25551568     29.75334491     62.02846174      4.13773998
    C      9.64284368     28.42767659     65.48261164      3.94449271
    H      8.52559122     29.64111975     64.09959977      0.91905108
    C     11.85539132     27.68136015     64.71641102      4.13832970
    C     12.65922744     28.33899892     62.47474794      4.13774001
    C     11.23932711     29.73713686     61.02129351      3.94736546
    H      9.32855820     30.29881493     61.85618994      0.91862755
    C      8.64969826     28.43627297     66.51940801      4.10170164
    C     10.87512465     27.70214816     65.71116357      3.94449826
    H     12.78226476     27.13574657     64.88926223      0.91905705
    H     13.58618581     27.79353068     62.64702040      0.91862755
    C     12.47510495     29.00997746     61.25065287      3.94735403
    C     11.05935003     30.41098095     59.78679778      4.13832966
    C      8.85898422     27.77442095     67.70054662      4.07913579
    H      7.72238790     28.98084508     66.35052054      0.92078548
    C     11.04898541     27.02315356     66.96418429      4.10169345
    C     13.46194921     28.99686890     60.23256691      4.13834587
    C     12.03961914     30.39019842     58.79204772      3.94449832
    H     10.13247421     30.95658971     59.61394434      0.91905706
    C     10.07371747     27.05879156     67.92569186      4.07914329
    H      8.09968695     27.78841179     68.47897732      0.92094798
    H     11.97409767     26.47657898     67.13856077      0.92078589
    H     14.38915635     28.45123300     60.40361302      0.91905106
    C     13.27190214     29.66467402     59.02060084      3.94449268
    C     11.86575909     31.06919733     57.53902944      4.10169339
    H     10.21670810     26.54097060     68.87126017      0.92094481
    C     14.26504836     29.65608145     57.98380523      4.10170169
    C     12.84102878     31.03356499     56.57752347      4.07914330
    H     10.94064613     31.61577143     57.36465527      0.92078589
    C     14.05576208     30.31793534     56.80266770      4.07913578
    H     15.19235943     29.11151041     58.15269210      0.92078547
    H     12.69804008     31.55139088     55.63195758      0.92094478
    H     14.81505928     30.30394567     56.02423695      0.92094800
   36
Geometry Step: 78
    C     10.43964127     29.08236814     63.25255874      3.94735419
    C      9.45279862     29.09548122     64.27064597      4.13834566
    C     11.67541713     28.35520476     63.48191631      3.94736535
    C     10.25551606     29.75334567     62.02846338      4.13773996
    C      9.64284574     28.42767911     65.48261373      3.94449272
    H      8.52559221     29.64111726     64.09959644      0.91905112
    C     11.85539267     27.68135932     64.71641216      4.13832979
    C     12.65922706     28.33899815     62.47474631      4.13774000
    C     11.23932530     29.73713762     61.02129287      3.94736536
    H      9.32855777     30.29881537     61.85619499      0.91862758
    C      8.64969941     28.43627432     66.51940943      4.10170160
    C     10.87512670     27.70215059     65.71116573      3.94449826
    H     12.78226363     27.13574113     64.88926327      0.91905700
    H     13.58618623     27.79353021     62.64701534      0.91862758
    C     12.47510268     29.00997717     61.25065157      3.94735417
    C     11.05934869     30.41098181     59.78679666      4.13832975
    C      8.85898248     27.77441926     67.70054691      4.07913580
    H      7.72238944     28.98084677     66.35052170      0.92078552
    C     11.04898605     27.02315624     66.96418691      4.10169350
    C     13.46194720     28.99686834     60.23256597      4.13834571
    C     12.03961708     30.39019600     58.79204556      3.94449831
    H     10.13247536     30.95659521     59.61394333      0.91905701
    C     10.07371626     27.05879105     67.92569284      4.07914326
    H      8.09968270     27.78840667     68.47897549      0.92094793
    H     11.97409850     26.47658268     67.13856492      0.92078594
    H     14.38915533     28.45123547     60.40361636      0.91905110
    C     13.27190006     29.66467149     59.02059874      3.94449269
    C     11.86575845     31.06919465     57.53902681      4.10169345
    H     10.21670619     26.54096833     68.87126033      0.92094481
    C     14.26504722     29.65608009     57.98380381      4.10170164
    C     12.84102998     31.03356548     56.57752248      4.07914327
    H     10.94064531     31.61576775     57.36465104      0.92078595
    C     14.05576383     30.31793703     56.80266742      4.07913578
    H     15.19235789     29.11150871     58.15269094      0.92078551
    H     12.69804196     31.55139313     55.63195740      0.92094478
    H     14.81506356     30.30395083     56.02423879      0.92094795
   36
Geometry Step: 79
    C     10.43964349     29.08236843     63.25256001      3.94735433
    C      9.45280061     29.09548177     64.27064690      4.13834550
    C     11.67541892     28.35520404     63.48191697      3.94736525
    C     10.25551644     29.75334642     62.02846499      4.13773995
    C      9.64284779     28.42768161     65.48261580      3.94449273
    H      8.52559320     29.64111479     64.09959323      0.91905116
    C     11.85539398     27.68135853     64.71641330      4.13832987
    C     12.65922668     28.33899739     62.47474472      4.13773998
    C     11.23932352     29.73713836     61.02129223      3.94736526
    H      9.32855736     30.29881583     61.85619998      0.91862761
    C      8.64970051     28.43627566     66.51941081      4.10170156
    C     10.87512871     27.70215300     65.71116789      3.94449825
    H     12.78226250     27.13573580     64.88926426      0.91905695
    H     13.58618664     27.79352971     62.64701036      0.91862761
    C     12.47510045     29.00997687     61.25065031      3.94735431
    C     11.05934739     30.41098263     59.78679555      4.13832983
    C      8.85898079     27.77441760     67.70054714      4.07913580
    H      7.72239094     28.98084848     66.35052284      0.92078555
    C     11.04898670     27.02315887     66.96418951      4.10169355
    C     13.46194521     28.99686778     60.23256504      4.13834555
    C     12.03961506     30.39019361     58.79204340      3.94449831
    H     10.13247651     30.95660060     59.61394237      0.91905696
    C     10.07371509     27.05879054     67.92569380      4.07914322
    H      8.09967852     27.78840159     68.47897363      0.92094789
    H     11.97409937     26.47658635     67.13856907      0.92078599
    H     14.38915433     28.45123790     60.40361957      0.91905115
    C     13.27189801     29.66466898     59.02059667      3.94449270
    C     11.86575779     31.06919202     57.53902420      4.10169350
    H     10.21670428     26.54096606     68.87126048      0.92094482
    C     14.26504611     29.65607874     57.98380244      4.10170160
    C     12.84103116     31.03356598     56.57752151      4.07914323
    H     10.94064446     31.61576408     57.36464682      0.92078600
    C     14.05576554     30.31793870     56.80266719      4.07913578
    H     15.19235640     29.11150700     58.15268981      0.92078555
    H     12.69804384     31.55139536     55.63195724      0.92094479
    H     14.81506776     30.30395594     56.02424066      0.92094791
   36
Geometry Step: 80
    C     10.43964569     29.08236872     63.25256126      3.94735446
    C      9.45280258     29.09548231     64.27064782      4.13834534
    C     11.67542067     28.35520332     63.48191762      3.94736515
    C     10.25551682     29.75334717     62.02846656      4.13773993
    C      9.64284982     28.42768409     65.48261784      3.94449274
    H      8.52559417     29.64111237     64.09959015      0.91905121
    C     11.85539526     27.68135778     64.71641442      4.13832996
    C     12.65922630     28.33899664     62.47474316      4.13773997
    C     11.23932177     29.73713909     61.02129159      3.94736516
    H      9.32855697     30.29881632     61.85620490      0.91862764
    C      8.64970158     28.43627698     66.51941213      4.10170151
    C     10.87513070     27.70215537     65.71117004      3.94449825
    H     12.78226136     27.13573056     64.88926521      0.91905691
    H     13.58618702     27.79352919     62.64700543      0.91862764
    C     12.47509825     29.00997657     61.25064907      3.94735444
    C     11.05934612     30.41098342     59.78679444      4.13832992
    C      8.85897912     27.77441596     67.70054734      4.07913581
    H      7.72239239     28.98085019     66.35052394      0.92078559
    C     11.04898738     27.02316145     66.96419208      4.10169360
    C     13.46194322     28.99686722     60.23256412      4.13834540
    C     12.03961307     30.39019125     58.79204126      3.94449830
    H     10.13247766     30.95660589     59.61394146      0.91905692
    C     10.07371394     27.05879003     67.92569474      4.07914318
    H      8.09967441     27.78839654     68.47897173      0.92094785
    H     11.97410027     26.47658999     67.13857320      0.92078604
    H     14.38915333     28.45124030     60.40362265      0.91905119
    C     13.27189597     29.66466648     59.02059463      3.94449271
    C     11.86575711     31.06918944     57.53902161      4.10169354
    H     10.21670237     26.54096381     68.87126063      0.92094482
    C     14.26504504     29.65607741     57.98380111      4.10170156
    C     12.84103232     31.03356648     56.57752056      4.07914320
    H     10.94064357     31.61576045     57.36464262      0.92078604
    C     14.05576721     30.31794035     56.80266700      4.07913579
    H     15.19235495     29.11150528     58.15268871      0.92078558
    H     12.69804573     31.55139758     55.63195707      0.92094480
    H     14.81507189     30.30396103     56.02424257      0.92094786
