   36
 Eigenmode          89   1666.0060980918252      cm-1
    C     10.43964569     29.08236872     63.25256126  -1858.35265056    198.18509470   1549.58389201
    C      9.45280258     29.09548231     64.27064782   1551.02465344     10.57323287  -1667.15662014
    C     11.67542067     28.35520332     63.48191762    586.75538360  -1240.10348503   2001.31102309
    C     10.25551682     29.75334717     62.02846656    568.96916571    466.44336211  -1588.77590307
    C      9.64284982     28.42768409     65.48261784  -2982.71013228   1404.63049904    191.98428010
    H      8.52559417     29.64111237     64.09959015   -143.86324990  -1392.91279666   3101.51771872
    C     11.85539526     27.68135778     64.71641442   -239.52103121   1063.84737734  -1996.85977153
    C     12.65922630     28.33899664     62.47474316    568.95384284    466.46255433  -1588.79147767
    C     11.23932177     29.73713909     61.02129159    586.79911633  -1240.21446988   2001.50990037
    H      9.32855697     30.29881632     61.85620490  -1078.63627956   -881.80098413   3007.08457285
    C      8.64970158     28.43627698     66.51941213   1422.65088174  -1998.12595329   2724.68514495
    C     10.87513070     27.70215537     65.71117004   2483.85551650  -1813.70768734   1204.31835809
    H     12.78226136     27.13573056     64.88926521  -1956.05659396   -325.89619915   2761.68925677
    H     13.58618702     27.79352919     62.64700543  -1078.68370181   -881.79228333   3007.09068322
    C     12.47509825     29.00997657     61.25064907  -1858.53096894    198.17903445   1549.76582170
    C     11.05934612     30.41098342     59.78679444   -239.48909458   1063.97311587  -1997.15989668
    C      8.85897912     27.77441596     67.70054734  -3246.57288624   3185.25161425  -3301.60990586
    H      7.72239239     28.98085019     66.35052394   3219.16401106  -1039.06112506  -1219.90002858
    C     11.04898738     27.02316145     66.96419208  -3071.94909805    649.22113559   1889.91482696
    C     13.46194322     28.99686722     60.23256412   1551.20464099     10.63446079  -1667.45743095
    C     12.03961307     30.39019125     58.79204126   2484.06199421  -1813.89811846   1204.51465935
    H     10.13247766     30.95660589     59.61394146  -1956.27655684   -325.98363494   2762.08810739
    C     10.07371394     27.05879003     67.92569474   5055.48665490  -1705.55383801  -1761.14332402
    H      8.09967441     27.78839654     68.47897173   2919.88645409  -2602.39596336   2415.19217808
    H     11.97410027     26.47658999     67.13857320  -2000.03354100   2036.11010662  -2186.42823199
    H     14.38915333     28.45124030     60.40362265   -143.96510498  -1393.08837207   3101.97793317
    C     13.27189597     29.66466648     59.02059463  -2983.02312396   1404.71807310    192.10663798
    C     11.86575711     31.06918944     57.53902161  -3072.30150654    649.28919268   1890.10778336
    H     10.21670237     26.54096381     68.87126063  -4172.81201330   1576.89607231   1101.07648293
    C     14.26504504     29.65607741     57.98380111   1422.82648842  -1998.35512574   2724.97970800
    C     12.84103232     31.03356648     56.57752056   5056.08397799  -1705.74509582  -1761.34060951
    H     10.94064357     31.61576045     57.36464262  -2000.28747154   2036.34471042  -2186.62778150
    C     14.05576721     30.31794035     56.80266700  -3246.96185746   3185.63489885  -3301.99520248
    H     15.19235495     29.11150528     58.15268871   3219.51984334  -1039.20165733  -1219.97827925
    H     12.69804573     31.55139758     55.63195707  -4173.29890069   1577.07753763   1101.21729464
    H     14.81507189     30.30396103     56.02424257   2920.23179357  -2602.71988279   2415.48060174
   36
 Eigenmode          90   1690.0618146433605      cm-1
    C     10.43964569     29.08236872     63.25256126    406.97494171  -1185.91279417   2077.18563623
    C      9.45280258     29.09548231     64.27064782   -685.74639486  -1385.64661595   3659.63421758
    C     11.67542067     28.35520332     63.48191762   1750.95643280    -86.09815194  -1671.64549391
    C     10.25551682     29.75334717     62.02846656   1752.50125902   1435.81697587  -4891.97995756
    C      9.64284982     28.42768409     65.48261784    409.78713827   1548.69047561  -3713.81977030
    H      8.52559417     29.64111237     64.09959015   2072.26398267    379.02549337  -2999.74499061
    C     11.85539526     27.68135778     64.71641442   1860.30753768    699.15341916  -3450.04986791
    C     12.65922630     28.33899664     62.47474316  -1752.49374689  -1435.81728764   4891.95180829
    C     11.23932177     29.73713909     61.02129159  -1750.96812747     86.09672592   1671.66316837
    H      9.32855697     30.29881632     61.85620490  -1733.38509894  -1416.73799909   4831.78588654
    C      8.64970158     28.43627698     66.51941213   -388.89959485   1100.37939309  -1920.21789324
    C     10.87513070     27.70215537     65.71117004  -2135.06490521   -536.30998905   3398.20261558
    H     12.78226136     27.13573056     64.88926521   -203.59988966  -1485.19210791   3356.46973059
    H     13.58618702     27.79352919     62.64700543   1733.38408753   1416.74275462  -4831.75515522
    C     12.47509825     29.00997657     61.25064907   -406.96641061   1185.91127645  -2077.18617875
    C     11.05934612     30.41098342     59.78679444  -1860.32073252   -699.16335115   3450.05312352
    C      8.85897912     27.77441596     67.70054734    449.67402636  -1551.28535639   2811.43470816
    H      7.72239239     28.98085019     66.35052394  -1721.24679854    691.77559972    363.68134178
    C     11.04898738     27.02316145     66.96419208  -1633.11831823     88.35404253   1549.47382352
    C     13.46194322     28.99686722     60.23256412    685.74269209   1385.64210904  -3659.60142185
    C     12.03961307     30.39019125     58.79204126   2135.08217527    536.32360337  -3398.20546616
    H     10.13247766     30.95660589     59.61394146    203.59615765   1485.20157852  -3356.47191729
    C     10.07371394     27.05879003     67.92569474   2287.82017567    -58.46026876  -2308.77334497
    H      8.09967441     27.78839654     68.47897173  -3791.68785574   2274.83492453   -790.75684098
    H     11.97410027     26.47658999     67.13857320  -1267.35560345   1069.42924736   -919.02427905
    H     14.38915333     28.45124030     60.40362265  -2072.25047432   -379.03228403   2999.71485466
    C     13.27189597     29.66466648     59.02059463   -409.79066824  -1548.68408549   3713.79405527
    C     11.86575711     31.06918944     57.53902161   1633.12653611    -88.34633813  -1549.47529111
    H     10.21670237     26.54096381     68.87126063  -3856.64416991   2229.62991061   -624.29882068
    C     14.26504504     29.65607741     57.98380111    388.89682600  -1100.38037301   1920.21456371
    C     12.84103232     31.03356648     56.57752056  -2287.83461675     58.45103101   2308.77432424
    H     10.94064357     31.61576045     57.36464262   1267.36372616  -1069.43646320    919.02396106
    C     14.05576721     30.31794035     56.80266700   -449.66789768   1551.28498194  -2811.42569082
    H     15.19235495     29.11150528     58.15268871   1721.24482883   -691.76833181   -363.69099658
    H     12.69804573     31.55139758     55.63195707   3856.65278437  -2229.63400081    624.29630660
    H     14.81507189     30.30396103     56.02424257   3791.68424843  -2274.83143876    790.75104702
   36
 Eigenmode          91   1716.6454668344527      cm-1
    C     10.43964569     29.08236872     63.25256126   1381.66846202   1540.76409363  -4722.53253470
    C      9.45280258     29.09548231     64.27064782  -1096.72824977  -1241.35931959   3789.91948042
    C     11.67542067     28.35520332     63.48191762  -1964.22376949  -1199.62175903   4616.10927018
    C     10.25551682     29.75334717     62.02846656  -1721.34275948  -1409.16529000   4802.45070774
    C      9.64284982     28.42768409     65.48261784    289.86930584   1155.04637433  -2753.60804902
    H      8.52559417     29.64111237     64.09959015   1975.26615525   1219.05014888  -4676.96988565
    C     11.85539526     27.68135778     64.71641442   1586.79686664    955.91689809  -3702.88868802
    C     12.65922630     28.33899664     62.47474316   1721.34479828   1409.16895320  -4802.43468680
    C     11.23932177     29.73713909     61.02129159   1964.21794677   1199.61922307  -4616.10372083
    H      9.32855697     30.29881632     61.85620490   2154.64680858   1762.83095490  -6010.27222043
    C      8.64970158     28.43627698     66.51941213   -171.73566247   -311.93743095    843.97349779
    C     10.87513070     27.70215537     65.71117004  -1595.77019593   -388.12115205   2513.51971711
    H     12.78226136     27.13573056     64.88926521  -1412.43314124  -1555.49681865   4784.99630668
    H     13.58618702     27.79352919     62.64700543  -2154.64752397  -1762.85322721   6010.24487031
    C     12.47509825     29.00997657     61.25064907  -1381.65617692  -1540.76888635   4722.49843828
    C     11.05934612     30.41098342     59.78679444  -1586.79177559   -955.92309312   3702.87312071
    C      8.85897912     27.77441596     67.70054734    -67.65759143    172.79213411   -294.63959807
    H      7.72239239     28.98085019     66.35052394    623.08122472    369.07004322  -1445.05751580
    C     11.04898738     27.02316145     66.96419208    414.40898216    168.88955581   -798.03144137
    C     13.46194322     28.99686722     60.23256412   1096.71597493   1241.35715863  -3789.87824057
    C     12.03961307     30.39019125     58.79204126   1595.76173320    388.13547555  -2513.50502346
    H     10.13247766     30.95660589     59.61394146   1412.43394079   1555.49266870  -4784.97964448
    C     10.07371394     27.05879003     67.92569474   -254.19759784     17.38706450    233.66961310
    H      8.09967441     27.78839654     68.47897173    296.80670871   -175.38025389     57.12038376
    H     11.97410027     26.47658999     67.13857320   -425.20270794   -486.98315968   1481.61789444
    H     14.38915333     28.45124030     60.40362265  -1975.25468778  -1219.04945455   4676.92190500
    C     13.27189597     29.66466648     59.02059463   -289.86217791  -1155.04441528   2753.58523338
    C     11.86575711     31.06918944     57.53902161   -414.40566140   -168.89575900    798.02681424
    H     10.21670237     26.54096381     68.87126063    295.94751400   -174.26316308     53.62242104
    C     14.26504504     29.65607741     57.98380111    171.73160364    311.94584340   -843.98354394
    C     12.84103232     31.03356648     56.57752056    254.18978072    -17.38139263   -233.66948031
    H     10.94064357     31.61576045     57.36464262    425.20646646    486.99290476  -1481.60702876
    C     14.05576721     30.31794035     56.80266700     67.66669968   -172.80420629    294.65392680
    H     15.19235495     29.11150528     58.15268871   -623.08933334   -369.06520761   1445.05806424
    H     12.69804573     31.55139758     55.63195707   -295.94643367    174.26439570    -53.62617934
    H     14.81507189     30.30396103     56.02424257   -296.82137272    175.38933412    -57.12671245
   36
 Eigenmode          92   1739.8250399482345      cm-1
    C     10.43964569     29.08236872     63.25256126   1683.37498272    822.76614142  -3523.74695454
    C      9.45280258     29.09548231     64.27064782  -1517.43254027  -1487.00760853   4755.71154826
    C     11.67542067     28.35520332     63.48191762   -892.74054133  -1289.02850384   3671.19101926
    C     10.25551682     29.75334717     62.02846656    428.90080255   -252.75800716     80.49415829
    C      9.64284982     28.42768409     65.48261784    -55.20619208   1235.59277123  -2557.35043089
    H      8.52559417     29.64111237     64.09959015   1939.62445634   1297.49225549  -4804.10428762
    C     11.85539526     27.68135778     64.71641442   1867.03883690   1284.31010011  -4694.66907157
    C     12.65922630     28.33899664     62.47474316    428.89112119   -252.75921433     80.50921303
    C     11.23932177     29.73713909     61.02129159   -892.75046688  -1289.03594703   3671.22446848
    H      9.32855697     30.29881632     61.85620490    758.40471472   -446.23333487    140.49332410
    C      8.64970158     28.43627698     66.51941213      4.27815905   1230.33023669  -2613.27848136
    C     10.87513070     27.70215537     65.71117004  -1766.42844996   -164.86897363   2221.31494299
    H     12.78226136     27.13573056     64.88926521  -1528.95960943  -1543.46046847   4883.37692561
    H     13.58618702     27.79352919     62.64700543    758.40530835   -446.22581031    140.46999699
    C     12.47509825     29.00997657     61.25064907   1683.38217618    822.77634066  -3523.74961459
    C     11.05934612     30.41098342     59.78679444   1867.06009876   1284.33101110  -4694.70778292
    C      8.85897912     27.77441596     67.70054734    416.12232880  -1544.47773797   2832.69900447
    H      7.72239239     28.98085019     66.35052394  -1804.76871133    348.16638951   1180.92701041
    C     11.04898738     27.02316145     66.96419208  -1750.54974668   -203.06950520   2291.21353267
    C     13.46194322     28.99686722     60.23256412  -1517.43513101  -1487.02036627   4755.71076372
    C     12.03961307     30.39019125     58.79204126  -1766.44998973   -164.88283523   2221.33378485
    H     10.13247766     30.95660589     59.61394146  -1528.97624630  -1543.48089182   4883.41983419
    C     10.07371394     27.05879003     67.92569474   2266.67090137    -34.50754030  -2337.03487825
    H      8.09967441     27.78839654     68.47897173  -3455.70619221   1903.29465223   -360.51200156
    H     11.97410027     26.47658999     67.13857320   -789.54194883   1180.76883959  -1662.42172599
    H     14.38915333     28.45124030     60.40362265   1939.63120133   1297.50572685  -4804.10394699
    C     13.27189597     29.66466648     59.02059463    -55.20508156   1235.59911331  -2557.35711351
    C     11.86575711     31.06918944     57.53902161  -1750.56111234   -203.08095668   2291.21809208
    H     10.21670237     26.54096381     68.87126063  -3268.94750737   2058.21961309   -885.62354833
    C     14.26504504     29.65607741     57.98380111      4.27867479   1230.33231096  -2613.27024365
    C     12.84103232     31.03356648     56.57752056   2266.68817264    -34.49747331  -2337.04012303
    H     10.94064357     31.61576045     57.36464262   -789.55076237   1180.78297093  -1662.42233704
    C     14.05576721     30.31794035     56.80266700    416.11741281  -1544.47938358   2832.69306675
    H     15.19235495     29.11150528     58.15268871  -1804.76401067    348.16280497   1180.92233248
    H     12.69804573     31.55139758     55.63195707  -3268.95781954   2058.22826699   -885.62427752
    H     14.81507189     30.30396103     56.02424257  -3455.70778844   1903.29356054   -360.50949656
   36
 Eigenmode          93   1766.8250422271822      cm-1
    C     10.43964569     29.08236872     63.25256126    494.69534552    205.79317571   -959.12391011
    C      9.45280258     29.09548231     64.27064782   -479.25717147   -893.34607206   2398.49982519
    C     11.67542067     28.35520332     63.48191762   -211.11174091   -372.75549042   1011.59291370
    C     10.25551682     29.75334717     62.02846656     62.99886794    -37.31575093     12.20152137
    C      9.64284982     28.42768409     65.48261784    944.59024658   1242.30715779  -3633.60826718
    H      8.52559417     29.64111237     64.09959015   1451.87613525    433.40462222  -2457.51877742
    C     11.85539526     27.68135778     64.71641442   1192.19251798    474.97749404  -2267.48873752
    C     12.65922630     28.33899664     62.47474316     62.96480468    -37.34130061     12.29305963
    C     11.23932177     29.73713909     61.02129159   -211.14768830   -372.76791776   1011.65999081
    H      9.32855697     30.29881632     61.85620490    112.36103693    -65.97293785     20.43864279
    C      8.64970158     28.43627698     66.51941213   -613.50798832  -1909.55305799   4700.72342693
    C     10.87513070     27.70215537     65.71117004  -1612.98337267   -850.51900343   3510.75719666
    H     12.78226136     27.13573056     64.88926521   -379.25991426  -1066.96816464   2657.34521973
    H     13.58618702     27.79352919     62.64700543    112.39153204    -65.94667918     20.34571556
    C     12.47509825     29.00997657     61.25064907    494.70886682    205.81971736   -959.18656375
    C     11.05934612     30.41098342     59.78679444   1192.18585432    474.98882305  -2267.48716674
    C      8.85897912     27.77441596     67.70054734   -543.69521637   1905.68139278  -3463.28163344
    H      7.72239239     28.98085019     66.35052394   2910.92952777    508.60208727  -4173.72501317
    C     11.04898738     27.02316145     66.96419208   2616.09442317    731.67446648  -4330.33430293
    C     13.46194322     28.99686722     60.23256412   -479.26433472   -893.33964903   2398.48042205
    C     12.03961307     30.39019125     58.79204126  -1612.96288637   -850.51103645   3510.67622866
    H     10.13247766     30.95660589     59.61394146   -379.27770004  -1066.96179024   2657.34082483
    C     10.07371394     27.05879003     67.92569474  -2798.47308137     62.25104020   2844.06107390
    H      8.09967441     27.78839654     68.47897173   3893.25829478  -2061.02142078    231.28399244
    H     11.97410027     26.47658999     67.13857320   -251.05871513  -2078.69132169   4667.36392999
    H     14.38915333     28.45124030     60.40362265   1451.85487642    433.42063145  -2457.50553310
    C     13.27189597     29.66466648     59.02059463    944.56074434   1242.28851282  -3633.51722469
    C     11.86575711     31.06918944     57.53902161   2616.00721377    731.67557892  -4330.18051509
    H     10.21670237     26.54096381     68.87126063   3562.82024328  -2331.95104836   1151.32623937
    C     14.26504504     29.65607741     57.98380111   -613.48673822  -1909.49424779   4700.55225889
    C     12.84103232     31.03356648     56.57752056  -2798.37166500     62.23164771   2843.95148342
    H     10.94064357     31.61576045     57.36464262   -251.06314716  -2078.65557984   4667.20763446
    C     14.05576721     30.31794035     56.80266700   -543.67825969   1905.61905620  -3463.14954406
    H     15.19235495     29.11150528     58.15268871   2910.82344956    508.59278032  -4173.58705676
    H     12.69804573     31.55139758     55.63195707   3562.68318870  -2331.86628984   1151.28384248
    H     14.81507189     30.30396103     56.02424257   3893.11408074  -2060.94330561    231.27797391
   36
 Eigenmode          94   1769.7043423397690      cm-1
    C     10.43964569     29.08236872     63.25256126   -299.55368168   -729.62725043   1860.80878107
    C      9.45280258     29.09548231     64.27064782    149.98919684   -361.62727534    606.11644137
    C     11.67542067     28.35520332     63.48191762    987.74238971    324.88166490  -1732.89537701
    C     10.25551682     29.75334717     62.02846656    951.82007499    779.43426701  -2656.08417474
    C      9.64284982     28.42768409     65.48261784    942.09663974    830.57594443  -2759.11750502
    H      8.52559417     29.64111237     64.09959015    744.17974226   -195.88427484   -374.34959192
    C     11.85539526     27.68135778     64.71641442    538.85318178    -43.52943669   -478.63194007
    C     12.65922630     28.33899664     62.47474316   -951.82099416   -779.43471864   2656.07427296
    C     11.23932177     29.73713909     61.02129159   -987.73716055   -324.86977106   1732.86659540
    H      9.32855697     30.29881632     61.85620490   -934.32608753   -764.12799533   2605.47008915
    C      8.64970158     28.43627698     66.51941213   -617.29575759  -2015.60973914   4929.56627387
    C     10.87513070     27.70215537     65.71117004  -1027.70277309   -781.35653086   2743.83033827
    H     12.78226136     27.13573056     64.88926521    400.16478524   -478.26432441    587.01679273
    H     13.58618702     27.79352919     62.64700543    934.32288360    764.13589167  -2605.45933677
    C     12.47509825     29.00997657     61.25064907    299.53737200    729.62233942  -1860.77125794
    C     11.05934612     30.41098342     59.78679444   -538.89768237     43.51104391    478.70877904
    C      8.85897912     27.77441596     67.70054734   -579.93398098   2071.14115903  -3775.58378725
    H      7.72239239     28.98085019     66.35052394   3012.11111851    413.61675145  -4079.91483672
    C     11.04898738     27.02316145     66.96419208   2766.54763693    751.47525527  -4532.23636913
    C     13.46194322     28.99686722     60.23256412   -149.97171206    361.65662801   -606.19580696
    C     12.03961307     30.39019125     58.79204126   1027.76391700    781.39705129  -2743.95057009
    H     10.13247766     30.95660589     59.61394146   -400.15460622    478.30295113   -587.10606284
    C     10.07371394     27.05879003     67.92569474  -3040.15133964     60.29581679   3105.12920194
    H      8.09967441     27.78839654     68.47897173   4255.89534995  -2238.62175492    222.01746832
    H     11.97410027     26.47658999     67.13857320    -99.21695195  -2132.54761616   4620.51947440
    H     14.38915333     28.45124030     60.40362265   -744.22767291    195.86541684    374.43117355
    C     13.27189597     29.66466648     59.02059463   -942.13001994   -830.62242063   2759.23382140
    C     11.86575711     31.06918944     57.53902161  -2766.64116889   -751.52575457   4532.37756850
    H     10.21670237     26.54096381     68.87126063   3874.47038019  -2551.55622932   1285.48591711
    C     14.26504504     29.65607741     57.98380111    617.31546696   2015.68019589  -4929.71124037
    C     12.84103232     31.03356648     56.57752056   3040.24811630    -60.28020227  -3105.21846799
    H     10.94064357     31.61576045     57.36464262     99.22938837   2132.65055857  -4620.67079261
    C     14.05576721     30.31794035     56.80266700    579.95211038  -2071.20942146   3775.68963261
    H     15.19235495     29.11150528     58.15268871  -3012.19943490   -413.63850752   4080.04704698
    H     12.69804573     31.55139758     55.63195707  -3874.58406994   2551.63522728  -1285.52418016
    H     14.81507189     30.30396103     56.02424257  -4256.02025991   2238.68596233   -222.02523535
   36
 Eigenmode          95   2996.6875450230364      cm-1
    C     10.43964569     29.08236872     63.25256126     26.34178876    -19.69898299     13.75070124
    C      9.45280258     29.09548231     64.27064782   -582.85527234    345.80167555   -113.53366005
    C     11.67542067     28.35520332     63.48191762     32.30613164    -14.79639917     -2.90708842
    C     10.25551682     29.75334717     62.02846656   -708.67725051    417.02606688   -131.69984508
    C      9.64284982     28.42768409     65.48261784      9.02960583    -18.40611394     29.37472295
    H      8.52559417     29.64111237     64.09959015   6646.15849783  -3908.60932544   1221.22075343
    C     11.85539526     27.68135778     64.71641442   -585.31719979    341.76192653   -103.17023598
    C     12.65922630     28.33899664     62.47474316   -708.67172960    417.02128315   -131.69910851
    C     11.23932177     29.73713909     61.02129159     32.30627646    -14.79630900     -2.90742966
    H      9.32855697     30.29881632     61.85620490   8054.80624923  -4739.83799804   1496.73955177
    C      8.64970158     28.43627698     66.51941213   -218.36076545    127.50516776    -38.22332807
    C     10.87513070     27.70215537     65.71117004     27.61707606     -3.18909754    -22.51328252
    H     12.78226136     27.13573056     64.88926521   6625.06449473  -3902.58494471   1240.59775505
    H     13.58618702     27.79352919     62.64700543   8054.74362322  -4739.78299845   1496.73176715
    C     12.47509825     29.00997657     61.25064907     26.34187501    -19.69882275     13.75047243
    C     11.05934612     30.41098342     59.78679444   -585.31761953    341.75841136   -103.17144779
    C      8.85897912     27.77441596     67.70054734    121.24284977     -5.35785868   -117.65682555
    H      7.72239239     28.98085019     66.35052394   2533.32270385  -1479.96186301    444.89425552
    C     11.04898738     27.02316145     66.96419208   -216.63786336    128.71653365    -42.37658576
    C     13.46194322     28.99686722     60.23256412   -582.85501848    345.79901670   -113.53397761
    C     12.03961307     30.39019125     58.79204126     27.61702560     -3.18895717    -22.51310648
    H     10.13247766     30.95660589     59.61394146   6625.06915602  -3902.54501483   1240.61085836
    C     10.07371394     27.05879003     67.92569474     27.26755531    -82.12256248    145.07194964
    H      8.09967441     27.78839654     68.47897173  -1457.20406978     28.24462676   1490.78502150
    H     11.97410027     26.47658999     67.13857320   2514.20898925  -1493.19798564    490.42460809
    H     14.38915333     28.45124030     60.40362265   6646.15539033  -3908.57856297   1221.22454675
    C     13.27189597     29.66466648     59.02059463      9.02956381    -18.40611128     29.37472551
    C     11.86575711     31.06918944     57.53902161   -216.63977272    128.71745849    -42.37645605
    H     10.21670237     26.54096381     68.87126063   -276.27968163    992.91506315  -1810.80862092
    C     14.26504504     29.65607741     57.98380111   -218.35788925    127.50316712    -38.22275244
    C     12.84103232     31.03356648     56.57752056     27.26751843    -82.12352391    145.07182541
    H     10.94064357     31.61576045     57.36464262   2514.23052822  -1493.20878933    490.42333379
    C     14.05576721     30.31794035     56.80266700    121.24069274     -5.35756565   -117.65471208
    H     15.19235495     29.11150528     58.15268871   2533.28896499  -1479.93804158    444.88623797
    H     12.69804573     31.55139758     55.63195707   -276.27694527    992.92616442  -1810.80772952
    H     14.81507189     30.30396103     56.02424257  -1457.17888971     28.24149945   1490.75920147
   36
 Eigenmode          96   2997.7437228978615      cm-1
    C     10.43964569     29.08236872     63.25256126    -21.95582630     -0.44251376     24.19999611
    C      9.45280258     29.09548231     64.27064782    602.83682399   -359.43358278    121.18816458
    C     11.67542067     28.35520332     63.48191762     -3.00557816     15.07730830    -28.70128240
    C     10.25551682     29.75334717     62.02846656     -1.01096626     -0.67847113      2.50726707
    C      9.64284982     28.42768409     65.48261784    -13.57400455     19.55813368    -26.98933295
    H      8.52559417     29.64111237     64.09959015  -6901.32897060   4068.25320323  -1288.39244079
    C     11.85539526     27.68135778     64.71641442    607.06991555   -352.69482445    103.26040013
    C     12.65922630     28.33899664     62.47474316      0.99396212      0.68850720     -2.51046339
    C     11.23932177     29.73713909     61.02129159      3.00638810    -15.07722743     28.70036226
    H      9.32855697     30.29881632     61.85620490      9.63418448      6.27921028    -23.50047213
    C      8.64970158     28.43627698     66.51941213    433.34304787   -253.88405018     77.65364561
    C     10.87513070     27.70215537     65.71117004    -29.97859264      6.12481800     18.80428123
    H     12.78226136     27.13573056     64.88926521  -6883.55940542   4045.25712826  -1268.70833394
    H     13.58618702     27.79352919     62.64700543     -9.44028920     -6.39365995     23.53664261
    C     12.47509825     29.00997657     61.25064907     21.95600512      0.44212938    -24.19914670
    C     11.05934612     30.41098342     59.78679444   -607.06766548    352.68959043   -103.26118214
    C      8.85897912     27.77441596     67.70054734   -248.33751693     11.39709029    240.09549980
    H      7.72239239     28.98085019     66.35052394  -5047.90028597   2954.49566212   -898.21388365
    C     11.04898738     27.02316145     66.96419208    431.07537983   -255.27504286     82.51317398
    C     13.46194322     28.99686722     60.23256412   -602.84080670    359.43329998   -121.18920798
    C     12.03961307     30.39019125     58.79204126     29.97852385     -6.12451883    -18.80443782
    H     10.13247766     30.95660589     59.61394146   6883.53307216  -4045.19756499   1268.71649622
    C     10.07371394     27.05879003     67.92569474    -56.43952451    168.11353899   -296.31894246
    H      8.09967441     27.78839654     68.47897173   2981.00169575    -57.22075407  -3050.90342551
    H     11.97410027     26.47658999     67.13857320  -5017.09274001   2974.10035025   -966.86658921
    H     14.38915333     28.45124030     60.40362265   6901.37419421  -4068.24950740   1288.40438397
    C     13.27189597     29.66466648     59.02059463     13.57364907    -19.55818103     26.98980738
    C     11.86575711     31.06918944     57.53902161   -431.06363025    255.26766623    -82.50992993
    H     10.21670237     26.54096381     68.87126063    564.30413684  -2031.00616894   3704.90113174
    C     14.26504504     29.65607741     57.98380111   -433.33045796    253.87594794    -77.65102679
    C     12.84103232     31.03356648     56.57752056     56.43730769   -168.10982572    296.30891821
    H     10.94064357     31.61576045     57.36464262   5016.95462714  -2974.01446362    966.82930356
    C     14.05576721     30.31794035     56.80266700    248.32971485    -11.39632196   -240.08791416
    H     15.19235495     29.11150528     58.15268871   5047.75304692  -2954.40107575    898.18331189
    H     12.69804573     31.55139758     55.63195707   -564.27974788   2030.96183862  -3704.77685011
    H     14.81507189     30.30396103     56.02424257  -2980.90762663     57.21360136   3050.80681458
   36
 Eigenmode          97   2998.6625756035501      cm-1
    C     10.43964569     29.08236872     63.25256126     -3.10476832     15.31132942    -29.09433518
    C      9.45280258     29.09548231     64.27064782     12.67144393     -6.15224999     -0.42085948
    C     11.67542067     28.35520332     63.48191762    -22.25177682     -0.37369690     24.34474352
    C     10.25551682     29.75334717     62.02846656    528.64357204   -311.07984003     98.23557061
    C      9.64284982     28.42768409     65.48261784     13.08187896      1.23827363    -16.51697988
    H      8.52559417     29.64111237     64.09959015   -136.91547127     69.47667499     -1.77953073
    C     11.85539526     27.68135778     64.71641442     11.49211348     -8.06600489      4.89355618
    C     12.65922630     28.33899664     62.47474316    528.63490163   -311.07358710     98.23412596
    C     11.23932177     29.73713909     61.02129159    -22.25197127     -0.37451374     24.34676283
    H      9.32855697     30.29881632     61.85620490  -6032.92648878   3550.04816361  -1120.98595299
    C      8.64970158     28.43627698     66.51941213   -552.62958228    323.35555082    -98.15297291
    C     10.87513070     27.70215537     65.71117004      0.35955726     -9.16917503     19.03019004
    H     12.78226136     27.13573056     64.88926521   -128.82258516     86.94954113    -47.50455874
    H     13.58618702     27.79352919     62.64700543  -6032.82861080   3549.97651579  -1120.96968390
    C     12.47509825     29.00997657     61.25064907     -3.10403261     15.31114631    -29.09463302
    C     11.05934612     30.41098342     59.78679444     11.46136404     -8.04803780      4.88829539
    C      8.85897912     27.77441596     67.70054734    349.43212549    -14.52466514   -341.04351791
    H      7.72239239     28.98085019     66.35052394   6462.69793482  -3790.08359742   1165.89788978
    C     11.04898738     27.02316145     66.96419208   -549.13947272    325.61493801   -106.00664876
    C     13.46194322     28.99686722     60.23256412     12.65180510     -6.14053274     -0.42470244
    C     12.03961307     30.39019125     58.79204126      0.36069421     -9.16920906     19.02888569
    H     10.13247766     30.95660589     59.61394146   -128.47311113     86.74342668    -47.44071715
    C     10.07371394     27.05879003     67.92569474     77.25720896   -236.81858319    419.81033228
    H      8.09967441     27.78839654     68.47897173  -4204.95856969     79.44294370   4306.27393961
    H     11.97410027     26.47658999     67.13857320   6434.00068074  -3806.49163342   1223.98867511
    H     14.38915333     28.45124030     60.40362265   -136.69043261     69.34388635     -1.73847990
    C     13.27189597     29.66466648     59.02059463     13.08198392      1.23743202    -16.51519242
    C     11.86575711     31.06918944     57.53902161   -549.15370102    325.62287798   -106.00818543
    H     10.21670237     26.54096381     68.87126063   -794.26789359   2865.39648775  -5228.97145984
    C     14.26504504     29.65607741     57.98380111   -552.62014382    323.34918481    -98.15102458
    C     12.84103232     31.03356648     56.57752056     77.25804346   -236.82421610    419.81504006
    H     10.94064357     31.61576045     57.36464262   6434.16474325  -3806.58372566   1224.00688402
    C     14.05576721     30.31794035     56.80266700    349.42718105    -14.52369458   -341.03903774
    H     15.19235495     29.11150528     58.15268871   6462.58801831  -3790.00857760   1165.87284033
    H     12.69804573     31.55139758     55.63195707   -794.26943184   2865.46292567  -5229.03153284
    H     14.81507189     30.30396103     56.02424257  -4204.90263164     79.43436137   4306.21646113
   36
 Eigenmode          98   2999.3456585433692      cm-1
    C     10.43964569     29.08236872     63.25256126     20.82996065      1.64958953    -25.56383017
    C      9.45280258     29.09548231     64.27064782   -540.90908688    320.90699366   -105.35730077
    C     11.67542067     28.35520332     63.48191762      1.12129240    -14.48720814     29.45295394
    C     10.25551682     29.75334717     62.02846656     -0.66866134      0.30787896      0.04897557
    C      9.64284982     28.42768409     65.48261784     -8.96635191    -19.56399459     50.94008855
    H      8.52559417     29.64111237     64.09959015   6192.71621289  -3641.32685819   1136.60409653
    C     11.85539526     27.68135778     64.71641442   -539.83948294    315.20688137    -95.14075128
    C     12.65922630     28.33899664     62.47474316      0.69553145     -0.32372209     -0.04393899
    C     11.23932177     29.73713909     61.02129159     -1.12253485     14.48671180    -29.45068806
    H      9.32855697     30.29881632     61.85620490     -0.12125309    -10.08949772     21.47573177
    C      8.64970158     28.43627698     66.51941213    445.08311901   -259.54859037     77.18291024
    C     10.87513070     27.70215537     65.71117004     26.27061748      9.28174295    -47.48891510
    H     12.78226136     27.13573056     64.88926521   6134.10690926  -3614.00097289   1149.96070598
    H     13.58618702     27.79352919     62.64700543     -0.18558895     10.27037070    -21.53301330
    C     12.47509825     29.00997657     61.25064907    -20.82966470     -1.64887728     25.56179498
    C     11.05934612     30.41098342     59.78679444    539.82278645   -315.19364561     95.13886906
    C      8.85897912     27.77441596     67.70054734   -310.24992720     11.34086564    306.09745456
    H      7.72239239     28.98085019     66.35052394  -5219.41882703   3065.87507795   -952.04287639
    C     11.04898738     27.02316145     66.96419208    441.81048928   -262.87715914     87.20549146
    C     13.46194322     28.99686722     60.23256412    540.90236086   -320.90060997    105.35620884
    C     12.03961307     30.39019125     58.79204126    -26.27001286     -9.28198034     47.48813161
    H     10.13247766     30.95660589     59.61394146  -6133.91578177   3613.84956825  -1149.93718805
    C     10.07371394     27.05879003     67.92569474    -66.46990699    210.80314728   -376.13627215
    H      8.09967441     27.78839654     68.47897173   3743.07299488    -69.81726148  -3835.18201071
    H     11.97410027     26.47658999     67.13857320  -5212.77541419   3079.12819421   -981.38600933
    H     14.38915333     28.45124030     60.40362265  -6192.63911219   3641.25419626  -1136.59312574
    C     13.27189597     29.66466648     59.02059463      8.96661755     19.56366680    -50.93943601
    C     11.86575711     31.06918944     57.53902161   -441.82208578    262.88356290    -87.20662244
    H     10.21670237     26.54096381     68.87126063    706.66621086  -2554.11674663   4662.34010434
    C     14.26504504     29.65607741     57.98380111   -445.08651294    259.54990734    -77.18334112
    C     12.84103232     31.03356648     56.57752056     66.47051267   -210.80814968    376.14050167
    H     10.94064357     31.61576045     57.36464262   5212.90883133  -3079.20276064    981.40058016
    C     14.05576721     30.31794035     56.80266700    310.25102094    -11.34044369   -306.09835890
    H     15.19235495     29.11150528     58.15268871   5219.45768460  -3065.88936854    952.04574387
    H     12.69804573     31.55139758     55.63195707   -706.66773978   2554.17704235  -4662.39542006
    H     14.81507189     30.30396103     56.02424257  -3743.08693746     69.81076864   3835.19591030
   36
 Eigenmode          99   3000.1617091583535      cm-1
    C     10.43964569     29.08236872     63.25256126      0.64080207      1.35014923     -3.52144066
    C      9.45280258     29.09548231     64.27064782    610.15149409   -359.80836385    114.22357496
    C     11.67542067     28.35520332     63.48191762      1.79545786      0.55145052     -3.06358249
    C     10.25551682     29.75334717     62.02846656    680.60503780   -400.50488515    126.47896861
    C      9.64284982     28.42768409     65.48261784      9.47750635      6.24170824    -23.25714211
    H      8.52559417     29.64111237     64.09959015  -7000.66398822   4113.17701178  -1278.10512345
    C     11.85539526     27.68135778     64.71641442   -615.14362583    361.34936188   -113.01786768
    C     12.65922630     28.33899664     62.47474316   -680.53600058    400.46239012   -126.46553183
    C     11.23932177     29.73713909     61.02129159     -1.80001636     -0.55478889      3.07560039
    H      9.32855697     30.29881632     61.85620490  -7810.09309438   4595.77334540  -1451.14750575
    C      8.64970158     28.43627698     66.51941213    184.44832469   -104.60904684     25.72553277
    C     10.87513070     27.70215537     65.71117004      7.53582830      7.55028913    -23.94969259
    H     12.78226136     27.13573056     64.88926521   7035.78404747  -4148.40658855   1325.71204796
    H     13.58618702     27.79352919     62.64700543   7809.30377871  -4595.28751536   1450.99692138
    C     12.47509825     29.00997657     61.25064907     -0.64070735     -1.34910964      3.51906043
    C     11.05934612     30.41098342     59.78679444    614.97268153   -361.24566292    112.98913591
    C      8.85897912     27.77441596     67.70054734    -94.03229262      4.36707177     90.80022188
    H      7.72239239     28.98085019     66.35052394  -2155.74339235   1252.51949197   -364.05818942
    C     11.04898738     27.02316145     66.96419208   -177.41509294    108.53207519    -41.30594538
    C     13.46194322     28.99686722     60.23256412   -610.09428063    359.77175834   -114.21275719
    C     12.03961307     30.39019125     58.79204126     -7.53121856     -7.54865645     23.94118476
    H     10.13247766     30.95660589     59.61394146  -7033.83668526   4147.21646895  -1325.36583140
    C     10.07371394     27.05879003     67.92569474     21.23872348    -62.95723280    110.86016615
    H      8.09967441     27.78839654     68.47897173   1075.66204002    -20.95857317  -1100.21327301
    H     11.97410027     26.47658999     67.13857320   2115.71202748  -1263.52520525    427.50412338
    H     14.38915333     28.45124030     60.40362265   7000.00729454  -4112.75959529   1277.98730425
    C     13.27189597     29.66466648     59.02059463     -9.47632543     -6.24237847     23.25710402
    C     11.86575711     31.06918944     57.53902161    177.37909587   -108.51031899     41.29796070
    H     10.21670237     26.54096381     68.87126063   -201.74274605    724.37702492  -1320.86900412
    C     14.26504504     29.65607741     57.98380111   -184.38384951    104.57148860    -25.71494058
    C     12.84103232     31.03356648     56.57752056    -21.23521487     62.95075494   -110.84848633
    H     10.94064357     31.61576045     57.36464262  -2115.29144064   1263.27211155   -427.41392142
    C     14.05576721     30.31794035     56.80266700     93.99919559     -4.36508400    -90.76884985
    H     15.19235495     29.11150528     58.15268871   2154.98978725  -1252.07559096    363.92409299
    H     12.69804573     31.55139758     55.63195707    201.71895004   -724.30713628   1320.72624685
    H     14.81507189     30.30396103     56.02424257  -1075.27664855     20.94936445   1099.81843176
   36
 Eigenmode         100   3000.2274878429052      cm-1
    C     10.43964569     29.08236872     63.25256126     13.39956954      9.64361538    -34.59840587
    C      9.45280258     29.09548231     64.27064782   -734.09789163    436.07506366   -144.15125203
    C     11.67542067     28.35520332     63.48191762      7.40144083      8.38139618    -25.55909481
    C     10.25551682     29.75334717     62.02846656     50.13877575    -26.87933197      3.76156673
    C      9.64284982     28.42768409     65.48261784     -8.74719608     -9.32998041     29.01278527
    H      8.52559417     29.64111237     64.09959015   8419.74160984  -4963.00196167   1571.16493270
    C     11.85539526     27.68135778     64.71641442    666.35000640   -388.59292651    116.42593493
    C     12.65922630     28.33899664     62.47474316     50.04100915    -26.82165824      3.74345017
    C     11.23932177     29.73713909     61.02129159      7.40132442      8.38165508    -25.55950971
    H      9.32855697     30.29881632     61.85620490   -567.18594842    311.91565595    -59.16695704
    C      8.64970158     28.43627698     66.51941213   -338.62478625    195.34365039    -54.21761609
    C     10.87513070     27.70215537     65.71117004     -8.17351482     -6.78581756     23.00243251
    H     12.78226136     27.13573056     64.88926521  -7594.10929475   4463.21470497  -1400.47810223
    H     13.58618702     27.79352919     62.64700543   -566.06331943    311.25371481    -58.95891583
    C     12.47509825     29.00997657     61.25064907     13.39950134      9.64363062    -34.59799582
    C     11.05934612     30.41098342     59.78679444    666.45522063   -388.65036762    116.44638451
    C      8.85897912     27.77441596     67.70054734    149.86322986    -10.56421051   -137.07151708
    H      7.72239239     28.98085019     66.35052394   3951.34021870  -2303.48796308    683.61530333
    C     11.04898738     27.02316145     66.96419208    356.70010884   -214.48614699     75.16594405
    C     13.46194322     28.99686722     60.23256412   -734.19059854    436.12658137   -144.16903431
    C     12.03961307     30.39019125     58.79204126     -8.17515352     -6.78718867     23.00688565
    H     10.13247766     30.95660589     59.61394146  -7595.31094330   4463.87392002  -1400.71786072
    C     10.07371394     27.05879003     67.92569474    -43.33464603    114.38215617   -196.36540362
    H      8.09967441     27.78839654     68.47897173  -1692.95114851     32.08447010   1733.50358919
    H     11.97410027     26.47658999     67.13857320  -4203.04684326   2499.82378044   -827.51890372
    H     14.38915333     28.45124030     60.40362265   8420.80532262  -4963.59070391   1571.36479705
    C     13.27189597     29.66466648     59.02059463     -8.74871176     -9.33093285     29.01620626
    C     11.86575711     31.06918944     57.53902161    356.72219692   -214.49949019     75.17046014
    H     10.21670237     26.54096381     68.87126063    365.20940997  -1317.65104759   2404.56812836
    C     14.26504504     29.65607741     57.98380111   -338.65211083    195.35862109    -54.22114584
    C     12.84103232     31.03356648     56.57752056    -43.33695077    114.39125011   -196.37931043
    H     10.94064357     31.61576045     57.36464262  -4203.31167100   2499.97903979   -827.56433334
    C     14.05576721     30.31794035     56.80266700    149.87742592    -10.56455733   -137.08538051
    H     15.19235495     29.11150528     58.15268871   3951.65992569  -2303.66722299    683.66618494
    H     12.69804573     31.55139758     55.63195707    365.23099270  -1317.75607876   2404.73160866
    H     14.81507189     30.30396103     56.02424257  -1693.11513113     32.08460816   1733.67111076
   36
 Eigenmode         101   3000.2890901171654      cm-1
    C     10.43964569     29.08236872     63.25256126     20.16767207     23.88013876    -71.87691738
    C      9.45280258     29.09548231     64.27064782   -517.39669701    307.38969338   -101.68658239
    C     11.67542067     28.35520332     63.48191762    -31.85006234    -18.95059404     73.79190189
    C     10.25551682     29.75334717     62.02846656    732.24584282   -431.06244506    136.43634721
    C      9.64284982     28.42768409     65.48261784     -2.64675168    -19.80887619     44.75161137
    H      8.52559417     29.64111237     64.09959015   5925.93278310  -3493.54081956   1106.88063681
    C     11.85539526     27.68135778     64.71641442   -611.64486021    356.64341785   -106.76628546
    C     12.65922630     28.33899664     62.47474316    732.30237901   -431.09418771    136.44716015
    C     11.23932177     29.73713909     61.02129159    -31.85023290    -18.95118446     73.79359083
    H      9.32855697     30.29881632     61.85620490  -8368.70351828   4925.95717779  -1558.01279725
    C      8.64970158     28.43627698     66.51941213    202.01678190   -116.75660179     32.81280538
    C     10.87513070     27.70215537     65.71117004     28.95297254      5.94233105    -43.26425326
    H     12.78226136     27.13573056     64.88926521   6961.65427747  -4090.88315168   1282.51280694
    H     13.58618702     27.79352919     62.64700543  -8369.35482263   4926.32141124  -1558.13737793
    C     12.47509825     29.00997657     61.25064907     20.16802251     23.88006425    -71.87668267
    C     11.05934612     30.41098342     59.78679444   -611.73239917    356.69076435   -106.78327730
    C      8.85897912     27.77441596     67.70054734   -157.88324256      4.86665209    157.69113492
    H      7.72239239     28.98085019     66.35052394  -2376.13376411   1397.68887454   -437.55074460
    C     11.04898738     27.02316145     66.96419208    150.99738622    -90.60586085     31.41626192
    C     13.46194322     28.99686722     60.23256412   -517.34216621    307.35529635   -101.67670461
    C     12.03961307     30.39019125     58.79204126     28.95465854      5.94352847    -43.26795747
    H     10.13247766     30.95660589     59.61394146   6962.65299682  -4091.42684659   1282.71234762
    C     10.07371394     27.05879003     67.92569474    -26.74509546     92.39067767   -167.39298071
    H      8.09967441     27.78839654     68.47897173   1903.88153523    -34.94826362  -1951.92602891
    H     11.97410027     26.47658999     67.13857320  -1810.27825352   1065.01896805   -331.74808565
    H     14.38915333     28.45124030     60.40362265   5925.30735432  -3493.14742243   1106.76951273
    C     13.27189597     29.66466648     59.02059463     -2.64590717    -19.80875144     44.75026723
    C     11.86575711     31.06918944     57.53902161    150.97919358    -90.59459411     31.41172193
    H     10.21670237     26.54096381     68.87126063    310.81816260  -1126.71662166   2057.71099604
    C     14.26504504     29.65607741     57.98380111    202.05286348   -116.77696771     32.81816406
    C     12.84103232     31.03356648     56.57752056    -26.74291556     92.38705510   -167.38506391
    H     10.94064357     31.61576045     57.36464262  -1810.06292039   1064.88842078   -331.69998965
    C     14.05576721     30.31794035     56.80266700   -157.90368283      4.86731774    157.71086755
    H     15.19235495     29.11150528     58.15268871  -2376.55605183   1397.93137856   -437.62248613
    H     12.69804573     31.55139758     55.63195707    310.80077606  -1126.67860600   2057.61770690
    H     14.81507189     30.30396103     56.02424257   1904.11917092    -34.94937348  -1952.16929724
   36
 Eigenmode         102   3000.9996417133652      cm-1
    C     10.43964569     29.08236872     63.25256126    -13.32870128    -14.11227481     43.96518777
    C      9.45280258     29.09548231     64.27064782    168.14021302   -101.55770938     36.57034517
    C     11.67542067     28.35520332     63.48191762    -17.85372485    -11.47539058     43.16291194
    C     10.25551682     29.75334717     62.02846656   -701.97694586    413.08267372   -130.45475397
    C      9.64284982     28.42768409     65.48261784     -2.98274390     -2.65889298      8.81833495
    H      8.52559417     29.64111237     64.09959015  -1921.94770162   1150.23581492   -395.35051354
    C     11.85539526     27.68135778     64.71641442   -173.02410580     99.22975846    -26.69841108
    C     12.65922630     28.33899664     62.47474316    702.00152758   -413.09564936    130.45957551
    C     11.23932177     29.73713909     61.02129159     17.85288478     11.47526098    -43.16190823
    H      9.32855697     30.29881632     61.85620490   8002.64313174  -4709.14780021   1487.03960731
    C      8.64970158     28.43627698     66.51941213    537.47689989   -312.66102521     91.58300249
    C     10.87513070     27.70215537     65.71117004     -3.23774852     -2.47459140      8.68652383
    H     12.78226136     27.13573056     64.88926521   1962.46353324  -1136.01817590    325.19943594
    H     13.58618702     27.79352919     62.64700543  -8002.92510097   4709.29530934  -1487.09499908
    C     12.47509825     29.00997657     61.25064907     13.32938402     14.11327938    -43.96771696
    C     11.05934612     30.41098342     59.78679444    173.02897409    -99.23152851     26.69970997
    C      8.85897912     27.77441596     67.70054734   -246.49339888     20.24055105    219.38029301
    H      7.72239239     28.98085019     66.35052394  -6247.95432457   3657.97536945  -1114.09547769
    C     11.04898738     27.02316145     66.96419208   -532.02624463    317.31112740   -106.60666346
    C     13.46194322     28.99686722     60.23256412   -168.16476196    101.57155527    -36.57525302
    C     12.03961307     30.39019125     58.79204126      3.23752745      2.47415401     -8.68518573
    H     10.13247766     30.95660589     59.61394146  -1962.51713408   1136.03776837   -325.21427874
    C     10.07371394     27.05879003     67.92569474     68.75932725   -165.53973054    277.76431238
    H      8.09967441     27.78839654     68.47897173   2764.99651699    -51.40033062  -2833.36846892
    H     11.97410027     26.47658999     67.13857320   6217.75205492  -3684.77699947   1196.00548250
    H     14.38915333     28.45124030     60.40362265   1922.22790525  -1150.39218945    395.40327746
    C     13.27189597     29.66466648     59.02059463      2.98240684      2.65797149     -8.81602746
    C     11.86575711     31.06918944     57.53902161    531.99668437   -317.29301892    106.59950952
    H     10.21670237     26.54096381     68.87126063   -521.42288852   1885.44817998  -3441.99334720
    C     14.26504504     29.65607741     57.98380111   -537.45940786    312.64997581    -91.57962360
    C     12.84103232     31.03356648     56.57752056    -68.75459464    165.52987193   -277.74428466
    H     10.94064357     31.61576045     57.36464262  -6217.40499851   3684.56652873  -1195.92598204
    C     14.05576721     30.31794035     56.80266700    246.48610274    -20.23927736   -219.37440039
    H     15.19235495     29.11150528     58.15268871   6247.75227987  -3657.84663838   1114.05404225
    H     12.69804573     31.55139758     55.63195707    521.38069806  -1885.33581673   3441.74810191
    H     14.81507189     30.30396103     56.02424257  -2764.91950929     51.39364633   2833.28955782
   36
 Eigenmode         103   3001.5127503944163      cm-1
    C     10.43964569     29.08236872     63.25256126     -8.94009414     -4.77044691     19.56412128
    C      9.45280258     29.09548231     64.27064782    405.74329330   -240.16587174     77.86317443
    C     11.67542067     28.35520332     63.48191762     -5.43571348     -6.99680284     20.55137308
    C     10.25551682     29.75334717     62.02846656      0.86573873     -1.17652911      1.57345942
    C      9.64284982     28.42768409     65.48261784     13.07785479     15.91829143    -47.60067544
    H      8.52559417     29.64111237     64.09959015  -4620.21980453   2711.28730418   -836.55960727
    C     11.85539526     27.68135778     64.71641442   -410.48324642    240.23075380    -73.51323312
    C     12.65922630     28.33899664     62.47474316      0.91466170     -1.20532862      1.58253131
    C     11.23932177     29.73713909     61.02129159     -5.43444018     -6.99596860     20.54827080
    H      9.32855697     30.29881632     61.85620490     -6.92411130     15.89124237    -26.29462613
    C      8.64970158     28.43627698     66.51941213   -609.60506187    355.42855430   -105.59033316
    C     10.87513070     27.70215537     65.71117004     20.65291044     11.58645735    -46.42275968
    H     12.78226136     27.13573056     64.88926521   4640.60675131  -2739.44726507    881.29214649
    H     13.58618702     27.79352919     62.64700543     -7.48164164     16.21935968    -26.39817030
    C     12.47509825     29.00997657     61.25064907     -8.93906966     -4.76949672     19.56081881
    C     11.05934612     30.41098342     59.78679444   -410.47131596    240.22122814    -73.51208772
    C      8.85897912     27.77441596     67.70054734    282.15271335    -24.76212564   -247.73884423
    H      7.72239239     28.98085019     66.35052394   7061.85180874  -4143.42806926   1278.17256828
    C     11.04898738     27.02316145     66.96419208    605.23064820   -360.15994843    119.55371131
    C     13.46194322     28.99686722     60.23256412    405.73013988   -240.15622716     77.86065052
    C     12.03961307     30.39019125     58.79204126     20.65274428     11.58649961    -46.42202821
    H     10.13247766     30.95660589     59.61394146   4640.47209255  -2739.33910403    881.27731664
    C     10.07371394     27.05879003     67.92569474    -81.10655459    189.71737354   -315.88442056
    H      8.09967441     27.78839654     68.47897173  -3149.64407837     58.15973054   3228.36435305
    H     11.97410027     26.47658999     67.13857320  -7048.46760248   4168.02740884  -1336.66333246
    H     14.38915333     28.45124030     60.40362265  -4620.07085933   2711.17859838   -836.53305476
    C     13.27189597     29.66466648     59.02059463     13.07778737     15.91810054    -47.59999003
    C     11.86575711     31.06918944     57.53902161    605.23776312   -360.16364012    119.55382020
    H     10.21670237     26.54096381     68.87126063    595.04430763  -2153.77028967   3932.45955134
    C     14.26504504     29.65607741     57.98380111   -609.61537866    355.43349075   -105.59150059
    C     12.84103232     31.03356648     56.57752056    -81.10700563    189.72103868   -315.88700331
    H     10.94064357     31.61576045     57.36464262  -7048.55057692   4168.07086276  -1336.66463184
    C     14.05576721     30.31794035     56.80266700    282.15880713    -24.76201500   -247.74465324
    H     15.19235495     29.11150528     58.15268871   7061.97269472  -4143.48727824   1278.18829066
    H     12.69804573     31.55139758     55.63195707    595.04360607  -2153.81293041   3932.49149494
    H     14.81507189     30.30396103     56.02424257  -3149.71368965     58.15536952   3228.43529420
   36
 Eigenmode         104   3001.8492366349819      cm-1
    C     10.43964569     29.08236872     63.25256126     20.07069720     17.49731523    -58.27147021
    C      9.45280258     29.09548231     64.27064782   -503.20067869    298.81433333    -98.60342870
    C     11.67542067     28.35520332     63.48191762     21.56429075     16.67547201    -58.09004219
    C     10.25551682     29.75334717     62.02846656    601.89988937   -354.19161109    111.85788011
    C      9.64284982     28.42768409     65.48261784    -12.37942802    -16.26401460     47.58251327
    H      8.52559417     29.64111237     64.09959015   5717.59837154  -3369.13634542   1064.61356003
    C     11.85539526     27.68135778     64.71641442    509.13504242   -297.00662406     89.15443381
    C     12.65922630     28.33899664     62.47474316   -601.90626474    354.19410461   -111.85931920
    C     11.23932177     29.73713909     61.02129159    -21.56405496    -16.67552571     58.09007301
    H      9.32855697     30.29881632     61.85620490  -6831.73962544   4020.15370883  -1269.49298467
    C      8.64970158     28.43627698     66.51941213    413.53491821   -241.18600935     71.78981278
    C     10.87513070     27.70215537     65.71117004    -21.22484629    -11.15581936     46.10977952
    H     12.78226136     27.13573056     64.88926521  -5747.64894391   3379.08110987  -1062.19115550
    H     13.58618702     27.79352919     62.64700543   6831.81296255  -4020.18165127   1269.50979707
    C     12.47509825     29.00997657     61.25064907    -20.07085908    -17.49767708     58.27197576
    C     11.05934612     30.41098342     59.78679444   -509.14080507    297.00669717    -89.15642395
    C      8.85897912     27.77441596     67.70054734   -194.05102679     17.41733818    169.56155515
    H      7.72239239     28.98085019     66.35052394  -4780.02286195   2807.82603762   -872.00061033
    C     11.04898738     27.02316145     66.96419208   -410.65261944    244.29350778    -80.95505239
    C     13.46194322     28.99686722     60.23256412    503.20561738   -298.81506880     98.60465774
    C     12.03961307     30.39019125     58.79204126     21.22538647     11.15613502    -46.11044568
    H     10.13247766     30.95660589     59.61394146   5747.71228211  -3379.08181317   1062.21399741
    C     10.07371394     27.05879003     67.92569474     56.33100435   -130.42176324    216.54493716
    H      8.09967441     27.78839654     68.47897173   2160.80989125    -39.83566114  -2214.95695528
    H     11.97410027     26.47658999     67.13857320   4775.31787856  -2820.58432128    898.72861252
    H     14.38915333     28.45124030     60.40362265  -5717.65406729   3369.14423743  -1064.62687212
    C     13.27189597     29.66466648     59.02059463     12.37978003     16.26443149    -47.58356053
    C     11.86575711     31.06918944     57.53902161    410.66694364   -244.30174126     80.95717947
    H     10.21670237     26.54096381     68.87126063   -408.16236962   1477.69814779  -2698.16091302
    C     14.26504504     29.65607741     57.98380111   -413.55612792    241.19765182    -71.79307531
    C     12.84103232     31.03356648     56.57752056    -56.33289964    130.42856178   -216.55409062
    H     10.94064357     31.61576045     57.36464262  -4775.48672647   2820.68023032   -898.75061135
    C     14.05576721     30.31794035     56.80266700    194.06176624    -17.41786002   -169.57123882
    H     15.19235495     29.11150528     58.15268871   4780.26932798  -2807.96285356    872.04126047
    H     12.69804573     31.55139758     55.63195707    408.17499906  -1477.77562672   2698.27090868
    H     14.81507189     30.30396103     56.02424257  -2160.93018808     39.83380408   2215.08017177
   36
 Eigenmode         105   3011.1126499400939      cm-1
    C     10.43964569     29.08236872     63.25256126     -0.99781287     -0.72762043      2.59559886
    C      9.45280258     29.09548231     64.27064782     36.10399812    -23.36559710     11.15287051
    C     11.67542067     28.35520332     63.48191762      0.87245821      0.80456699     -2.62402124
    C     10.25551682     29.75334717     62.02846656     -0.03164069     -0.00531572      0.04447673
    C      9.64284982     28.42768409     65.48261784     21.68353250      3.99307388    -31.47020888
    H      8.52559417     29.64111237     64.09959015   -438.71274525    254.12200458    -72.37898492
    C     11.85539526     27.68135778     64.71641442     39.19306996    -20.95256465      2.81396930
    C     12.65922630     28.33899664     62.47474316     -0.01083630      0.03030736     -0.05236925
    C     11.23932177     29.73713909     61.02129159     -0.86826606     -0.80256689      2.61534768
    H      9.32855697     30.29881632     61.85620490      0.55720105      0.21875049     -1.05267290
    C      8.64970158     28.43627698     66.51941213   -520.89598805    330.75957530   -147.60656360
    C     10.87513070     27.70215537     65.71117004     -2.14198749    -15.50647141     35.08288129
    H     12.78226136     27.13573056     64.88926521   -433.80436106    259.43367324    -89.46264920
    H     13.58618702     27.79352919     62.64700543     -0.07478433     -0.50265241      1.14235197
    C     12.47509825     29.00997657     61.25064907      0.99568236      0.72444159     -2.58661578
    C     11.05934612     30.41098342     59.78679444    -39.10614338     20.90597433     -2.80808656
    C      8.85897912     27.77441596     67.70054734   -481.71550166    -38.51416275    594.32511402
    H      7.72239239     28.98085019     66.35052394   5788.26688567  -3394.30436674   1043.61543719
    C     11.04898738     27.02316145     66.96419208   -554.82059574    302.87352287    -51.77040192
    C     13.46194322     28.99686722     60.23256412    -36.02542495     23.31436499    -11.12812446
    C     12.03961307     30.39019125     58.79204126      2.13728287     15.46955167    -34.99942160
    H     10.13247766     30.95660589     59.61394146    432.84287332   -258.85574025     89.26459939
    C     10.07371394     27.05879003     67.92569474    -23.25708479    335.97257035   -687.41587155
    H      8.09967441     27.78839654     68.47897173   5931.19667695    -90.84028695  -6119.03717479
    H     11.97410027     26.47658999     67.13857320   5765.53438592  -3411.28372467   1097.45657396
    H     14.38915333     28.45124030     60.40362265    437.75545527   -253.56590296     72.22214485
    C     13.27189597     29.66466648     59.02059463    -21.63174110     -3.98393106     31.39558878
    C     11.86575711     31.06918944     57.53902161    553.49800171   -302.15060761     51.64564310
    H     10.21670237     26.54096381     68.87126063   1090.16084199  -4045.15219348   7414.90576203
    C     14.26504504     29.65607741     57.98380111    519.65479736   -329.97076803    147.25454612
    C     12.84103232     31.03356648     56.57752056     23.20065958   -335.17731781    685.77981666
    H     10.94064357     31.61576045     57.36464262  -5751.78601348   3403.14408135  -1094.82653151
    C     14.05576721     30.31794035     56.80266700    480.57062654     38.42351613   -592.91219225
    H     15.19235495     29.11150528     58.15268871  -5774.47313460   3386.20633006  -1041.12418034
    H     12.69804573     31.55139758     55.63195707  -1087.55502156   4035.57226742  -7397.25901381
    H     14.81507189     30.30396103     56.02424257  -5917.09983174     90.61366386   6104.49363249
   36
 Eigenmode         106   3011.1339599210319      cm-1
    C     10.43964569     29.08236872     63.25256126      0.91205129      1.34265862     -3.80480342
    C      9.45280258     29.09548231     64.27064782    -33.62838140     21.82003323    -10.50758547
    C     11.67542067     28.35520332     63.48191762     -1.75919479     -0.84616896      3.64991747
    C     10.25551682     29.75334717     62.02846656     17.89095598    -10.52812798      3.32531943
    C      9.64284982     28.42768409     65.48261784    -21.71904202     -3.90135056     31.31340313
    H      8.52559417     29.64111237     64.09959015    409.30229197   -237.00267309     67.35109366
    C     11.85539526     27.68135778     64.71641442    -36.58016654     19.50283318     -2.51515806
    C     12.65922630     28.33899664     62.47474316     17.88983329    -10.52737128      3.32499639
    C     11.23932177     29.73713909     61.02129159     -1.76132942     -0.84810877      3.65626688
    H      9.32855697     30.29881632     61.85620490   -203.26609288    119.61327300    -37.77491454
    C      8.64970158     28.43627698     66.51941213    520.64350302   -330.54543422    147.42105642
    C     10.87513070     27.70215537     65.71117004      2.00524806     15.51527106    -34.95716552
    H     12.78226136     27.13573056     64.88926521    404.53695303   -242.01634561     83.60497472
    H     13.58618702     27.79352919     62.64700543   -203.25367993    119.60429906    -37.77001085
    C     12.47509825     29.00997657     61.25064907      0.91435091      1.34434890     -3.81079758
    C     11.05934612     30.41098342     59.78679444    -36.67459648     19.55313185     -2.52211971
    C      8.85897912     27.77441596     67.70054734    479.95379630     38.43857019   -592.29030909
    H      7.72239239     28.98085019     66.35052394  -5786.06202852   3392.96778821  -1043.12521402
    C     11.04898738     27.02316145     66.96419208    554.46822639   -302.73242145     51.84496204
    C     13.46194322     28.99686722     60.23256412    -33.71206464     21.87418873    -10.53372466
    C     12.03961307     30.39019125     58.79204126      2.01039688     15.55223943    -35.04049920
    H     10.13247766     30.95660589     59.61394146    405.58235718   -242.63885012     83.82090343
    C     10.07371394     27.05879003     67.92569474     23.07706803   -334.74697654    685.00852283
    H      8.09967441     27.78839654     68.47897173  -5909.82754640     90.51934368   6096.97810982
    H     11.97410027     26.47658999     67.13857320  -5763.21023684   3409.95212624  -1097.10849659
    H     14.38915333     28.45124030     60.40362265    410.32060830   -237.59059204     67.51868822
    C     13.27189597     29.66466648     59.02059463    -21.77068911     -3.91093265     31.38825083
    C     11.86575711     31.06918944     57.53902161    555.78619720   -303.45108391     51.96682109
    H     10.21670237     26.54096381     68.87126063  -1086.21860220   4030.49201264  -7388.02551898
    C     14.26504504     29.65607741     57.98380111    521.88549211   -331.33332777    147.77254738
    C     12.84103232     31.03356648     56.57752056     23.13071237   -335.54865975    686.64033152
    H     10.94064357     31.61576045     57.36464262  -5776.90429784   3418.04972463  -1099.70245111
    C     14.05576721     30.31794035     56.80266700    481.10289281     38.53124451   -593.70738548
    H     15.19235495     29.11150528     58.15268871  -5799.86312028   3401.05150373  -1045.60883670
    H     12.69804573     31.55139758     55.63195707  -1088.79490401   4040.14203393  -7405.62769091
    H     14.81507189     30.30396103     56.02424257  -5923.97243145     90.72518921   6111.57016216
   36
 Eigenmode         107   3018.1934202001544      cm-1
    C     10.43964569     29.08236872     63.25256126     -0.20220942      0.73609558     -1.34096121
    C      9.45280258     29.09548231     64.27064782     -0.85323576      1.08079587     -1.38592958
    C     11.67542067     28.35520332     63.48191762      1.07946284     -0.01757455     -1.10435163
    C     10.25551682     29.75334717     62.02846656     -0.30247546     -0.24474770      0.83822638
    C      9.64284982     28.42768409     65.48261784    -13.02372808     -4.96021852     24.33601922
    H      8.52559417     29.64111237     64.09959015     10.05227129      0.47940406    -11.68479696
    C     11.85539526     27.68135778     64.71641442      1.68450782     -0.41135828     -0.91795755
    C     12.65922630     28.33899664     62.47474316     -0.30105176     -0.24555825      0.83849494
    C     11.23932177     29.73713909     61.02129159      1.07938772     -0.01751143     -1.10442627
    H      9.32855697     30.29881632     61.85620490      0.50039037      0.37717653     -1.32621048
    C      8.64970158     28.43627698     66.51941213    404.48389753   -266.01323526    134.07483207
    C     10.87513070     27.70215537     65.71117004     -4.93153370     -9.74030443     25.85406151
    H     12.78226136     27.13573056     64.88926521     -1.02729665      7.02136745    -13.74161628
    H     13.58618702     27.79352919     62.64700543      0.48309245      0.38702622     -1.32926722
    C     12.47509825     29.00997657     61.25064907     -0.20212045      0.73606968     -1.34098968
    C     11.05934612     30.41098342     59.78679444      1.68532714     -0.41189402     -0.91765414
    C      8.85897912     27.77441596     67.70054734    619.12695964     -5.41611332   -647.35408935
    H      7.72239239     28.98085019     66.35052394  -4410.19102866   2593.36583556   -810.41764554
    C     11.04898738     27.02316145     66.96419208   -444.35045441    233.94028016    -23.19523964
    C     13.46194322     28.99686722     60.23256412     -0.85408179      1.08121909     -1.38591717
    C     12.03961307     30.39019125     58.79204126     -4.93104592     -9.73936981     25.85131309
    H     10.13247766     30.95660589     59.61394146     -1.03791682      7.02706871    -13.74225705
    C     10.07371394     27.05879003     67.92569474   -108.09822560    423.40119840   -782.49763684
    H      8.09967441     27.78839654     68.47897173  -6691.60794028    128.10282050   6849.17201213
    H     11.97410027     26.47658999     67.13857320   4407.82033960  -2600.75363785    823.69622214
    H     14.38915333     28.45124030     60.40362265     10.06152176      0.47346168    -11.68171653
    C     13.27189597     29.66466648     59.02059463    -13.02235870     -4.95976528     24.33344102
    C     11.86575711     31.06918944     57.53902161   -444.30409829    233.91506094    -23.19201671
    H     10.21670237     26.54096381     68.87126063   1267.88370080  -4565.08304014   8328.03686338
    C     14.26504504     29.65607741     57.98380111    404.44138567   -265.98461621    134.06027857
    C     12.84103232     31.03356648     56.57752056   -108.08520424    423.36032700   -782.41319046
    H     10.94064357     31.61576045     57.36464262   4407.35900598  -2600.47737562    823.59993501
    C     14.05576721     30.31794035     56.80266700    619.06089374     -5.41438075   -647.28490191
    H     15.19235495     29.11150528     58.15268871  -4409.72743473   2593.08639002   -810.32932198
    H     12.69804573     31.55139758     55.63195707   1267.73416157  -4564.64231587   8327.13639390
    H     14.81507189     30.30396103     56.02424257  -6690.89392064    128.07676027   6848.44040355
   36
 Eigenmode         108   3018.3693751605256      cm-1
    C     10.43964569     29.08236872     63.25256126      0.54555985     -0.79023629      1.08999742
    C      9.45280258     29.09548231     64.27064782     -6.38784647      2.96470554      0.50334007
    C     11.67542067     28.35520332     63.48191762     -1.21112993      0.24444019      0.76391915
    C     10.25551682     29.75334717     62.02846656    -13.34635618      7.85307052     -2.48065772
    C      9.64284982     28.42768409     65.48261784     13.01570151      5.03623605    -24.49012358
    H      8.52559417     29.64111237     64.09959015     69.57694124    -46.89511783     25.43368058
    C     11.85539526     27.68135778     64.71641442      5.25051627     -3.88580827      2.66607612
    C     12.65922630     28.33899664     62.47474316     13.34591761     -7.85283077      2.48067164
    C     11.23932177     29.73713909     61.02129159      1.21126187     -0.24443632     -0.76407813
    H      9.32855697     30.29881632     61.85620490    145.79655926    -85.79462030     27.09095648
    C      8.64970158     28.43627698     66.51941213   -407.58639747    267.59411275   -134.13174527
    C     10.87513070     27.70215537     65.71117004      5.04127320      9.74716967    -25.98541546
    H     12.78226136     27.13573056     64.88926521    -77.96286387     39.92753499     -1.93241496
    H     13.58618702     27.79352919     62.64700543   -145.79185551     85.79165004    -27.09031575
    C     12.47509825     29.00997657     61.25064907     -0.54557632      0.79030580     -1.09012117
    C     11.05934612     30.41098342     59.78679444     -5.25003009      3.88558326     -2.66615789
    C      8.85897912     27.77441596     67.70054734   -617.61147958      5.45447622    645.65817134
    H      7.72239239     28.98085019     66.35052394   4443.73622068  -2612.63169084    815.59884322
    C     11.04898738     27.02316145     66.96419208    447.09026674   -235.80015877     24.22291518
    C     13.46194322     28.99686722     60.23256412      6.38761680     -2.96449310     -0.50349096
    C     12.03961307     30.39019125     58.79204126     -5.04187543     -9.74834200     25.98828700
    H     10.13247766     30.95660589     59.61394146     77.95977704    -39.92436883      1.93039980
    C     10.07371394     27.05879003     67.92569474    107.90683939   -422.34823968    780.46884321
    H      8.09967441     27.78839654     68.47897173   6674.93992150   -127.56078331  -6832.58680667
    H     11.97410027     26.47658999     67.13857320  -4440.52579900   2620.51492877   -830.79020242
    H     14.38915333     28.45124030     60.40362265    -69.57437955     46.89388051    -25.43466166
    C     13.27189597     29.66466648     59.02059463    -13.01703778     -5.03684829     24.49260659
    C     11.86575711     31.06918944     57.53902161   -447.14083192    235.82609878    -24.22497652
    H     10.21670237     26.54096381     68.87126063  -1264.38273519   4553.65472466  -8307.53639550
    C     14.26504504     29.65607741     57.98380111    407.62861401   -267.62118852    134.14518914
    C     12.84103232     31.03356648     56.57752056   -107.91679347    422.39829399   -780.55265946
    H     10.94064357     31.61576045     57.36464262   4441.02822093  -2620.80762523    830.87490109
    C     14.05576721     30.31794035     56.80266700    617.67454382     -5.45402568   -645.72368749
    H     15.19235495     29.11150528     58.15268871  -4444.19667272   2612.89518761   -815.67964397
    H     12.69804573     31.55139758     55.63195707   1264.50550068  -4554.19570545   8308.42728457
    H     14.81507189     30.30396103     56.02424257  -6675.61826472    127.56146977   6833.28018106
