72
frame=249 time_fs=249.000000
C        23.3799746565        37.6648690055        35.1409710284
C        22.3814776679        37.6197037292        36.1597958230
C        24.6749972076        37.0266283804        35.4477856502
C        23.2156060757        38.2738836152        33.8663590480
C        22.6240366398        36.8842933650        37.2860693227
H        21.3870664270        38.0546299581        35.9482049615
C        24.9140174860        36.3405417116        36.6285627014
C        25.6689845319        37.0820201379        34.4769037944
C        24.2475843941        38.3437046833        32.9272568000
H        22.2511960120        38.6637495376        33.6021460169
C        21.6113828584        36.8614301345        38.3239865096
C        23.9143274752        36.3043029058        37.5878373194
H        25.8222364068        35.8266176314        36.6403516178
H        26.6794177983        36.7120379185        34.6586590080
C        25.5333171177        37.7024441577        33.2004548425
C        24.0514907091        38.9668256196        31.6659154250
C        21.9189908098        36.3324267384        39.5584677269
H        20.6604170041        37.2159656436        38.0610856010
C        24.1317663659        35.7553673591        38.8561147760
C        26.5030079700        37.7598586025        32.1777643330
C        25.0518387998        39.0638580904        30.7068931383
H        23.1194577736        39.4916181116        31.5679785990
C        23.2324012442        35.8812221154        39.8063619909
H        21.2398361853        36.2285671931        40.3733281199
H        25.0801160498        35.3199082065        39.0695627955
H        27.4869949019        37.3055896688        32.3329763170
C        26.3193007217        38.4090443483        30.9572178570
C        24.7756854536        39.7747741549        29.5174964513
H        23.4757919000        35.4939481397        40.8765331683
C        27.3609140568        38.5052733964        29.9468330383
C        25.7851961969        39.8523508765        28.6016571266
H        23.7013518198        40.0523304628        29.3970658077
C        27.0769868893        39.2402315830        28.8243687312
H        28.2139087681        37.9029647422        30.0335461700
H        25.4714737546        40.2666868748        27.6182656964
H        27.8436298071        39.2814241560        28.0748843388
C        26.3967825668        33.3507958239        34.7597731893
C        25.4967189922        32.5067679562        35.5435302223
C        27.5757509075        33.9006236140        35.4235214765
C        26.3572674919        33.5065225638        33.3725164985
C        25.6632515658        32.3009564899        36.9538156729
H        24.5335160812        32.2025412437        35.1139049684
C        27.7631482481        33.6802253824        36.7898649527
C        28.6446927271        34.5046965683        34.6396352499
C        27.4046259051        33.9808689910        32.6102944243
H        25.5581283455        32.9957475777        32.8111077131
C        24.7330434899        31.6453272131        37.8015518008
C        26.8545821195        32.9013676130        37.5504155847
H        28.7049474126        34.0839412628        37.1776718521
H        29.5073143805        34.8733101430        35.2296745491
C        28.5885056215        34.5240473478        33.2534746861
C        27.3095616180        34.1179676281        31.1937673077
C        25.0392747219        31.3762552914        39.0980620969
H        23.7504797062        31.4299756066        37.3694314954
C        27.1609425451        32.5776407410        38.9012356420
C        29.6806598980        34.9689981929        32.3953324172
C        28.2259399224        34.7986322028        30.4137266095
H        26.4111048889        33.7150571891        30.7337149416
C        26.2782272490        31.8545178997        39.6309574503
H        24.3031901285        30.7651433043        39.6673658227
H        28.0857830304        32.7898977570        39.4389313452
H        30.5224531201        35.3316607871        32.9511919337
C        29.4590928679        35.2499458329        31.0365750280
C        28.0544959732        34.8745294076        28.9751053681
H        26.5990149666        31.6794282685        40.6711557117
C        30.5082095253        35.7218416190        30.2290423346
C        29.0811834098        35.3215836861        28.2021945418
H        27.1113019216        34.5444074522        28.5365516250
C        30.2505288458        35.7744678259        28.8542831063
H        31.5056810396        35.9830226377        30.6282424949
H        28.9417673624        35.4915499834        27.1139625023
H        31.0132030976        36.1367589886        28.2729542822
