   36
Geometry Step: 0
    C     10.43270000     29.07330000     63.24400000      3.95063081
    C      9.44840000     29.07820000     64.26310000      4.16409278
    C     11.67680000     28.34410000     63.47600000      3.94665467
    C     10.26210000     29.75340000     62.03090000      4.16258551
    C      9.64400000     28.41890000     65.46360000      3.94222146
    H      8.63410000     29.54580000     64.11830000      0.89350359
    C     11.84730000     27.66740000     64.70030000      4.16338956
    C     12.65260000     28.33900000     62.47230000      4.16258862
    C     11.23790000     29.74820000     61.02730000      3.94664157
    H      9.44850000     30.22580000     61.90020000      0.89361746
    C      8.65980000     28.43580000     66.50100000      4.12582102
    C     10.87470000     27.69460000     65.68990000      3.94319839
    H     12.64850000     27.17990000     64.85210000      0.89359066
    H     13.46620000     27.86650000     62.60300000      0.89363349
    C     12.48200000     29.01910000     61.25920000      3.95062700
    C     11.06750000     30.42490000     59.80290000      4.16338956
    C      8.87100000     27.79220000     67.67330000      4.10728536
    H      7.84510000     28.90460000     66.36460000      0.89536838
    C     11.04650000     27.03480000     66.94380000      4.12453014
    C     13.46640000     29.01420000     60.24010000      4.16408890
    C     12.04000000     30.39770000     58.81330000      3.94318629
    H     10.26630000     30.91250000     59.65110000      0.89361154
    C     10.08880000     27.07780000     67.90240000      4.10814979
    H      8.20450000     27.81550000     68.34950000      0.89483022
    H     11.84910000     26.55360000     67.10960000      0.89622172
    H     14.28070000     28.54650000     60.38490000      0.89350309
    C     13.27070000     29.67340000     59.03960000      3.94222291
    C     11.86820000     31.05760000     57.55940000      4.12452429
    H     10.22720000     26.63270000     68.73040000      0.89430842
    C     14.25500000     29.65660000     58.00220000      4.12580127
    C     12.82590000     31.01460000     56.60080000      4.10817827
    H     11.06560000     31.53880000     57.39360000      0.89621539
    C     14.04380000     30.30010000     56.82990000      4.10731175
    H     15.06970000     29.18770000     58.13860000      0.89537777
    H     12.68750000     31.45960000     55.77280000      0.89429153
    H     14.71030000     30.27690000     56.15380000      0.89480682
   36
Geometry Step: 1
    C     10.43888860     29.06972081     63.24632355      3.94964380
    C      9.48786495     29.05726637     64.26606893      4.13790244
    C     11.66963136     28.34798556     63.47428033      3.94796227
    C     10.29887494     29.73090496     62.03852729      4.13721497
    C      9.64749223     28.41621148     65.46592639      3.94731985
    H      8.59136872     29.57064333     64.11042108      0.91949355
    C     11.81027982     27.68990933     64.69307894      4.13755273
    C     12.61584409     28.36147925     62.46468822      4.13721549
    C     11.24507631     29.74433911     61.02896793      3.94794916
    H      9.40575690     30.25107494     61.89226191      0.91915816
    C      8.69869960     28.41498113     66.50356756      4.10192268
    C     10.87026583     27.69711220     65.68976377      3.94758910
    H     12.69091586     27.15445812     64.85999379      0.91926196
    H     13.50891931     27.84123705     62.61093188      0.91916098
    C     12.47583375     29.02265903     61.25689489      3.94964541
    C     11.10446947     30.40240246     59.81013970      4.13756019
    C      8.90637368     27.78756065     67.64485367      4.07664194
    H      7.80245159     28.92948594     66.35686808      0.92014942
    C     11.01145720     27.05681249     66.93366578      4.10171606
    C     13.42693649     29.03512177     60.23714616      4.13791393
    C     12.04444693     30.39519113     58.81342526      3.94759233
    H     10.22390875     30.93793014     59.64321168      0.91926258
    C     10.07691763     27.10123899     67.86392567      4.07678540
    H      8.16995673     27.81640036     68.38528863      0.91966429
    H     11.89134057     26.52862206     67.11777147      0.92047391
    H     14.32340581     28.52166974     60.39277529      0.91948595
    C     13.26723068     29.67609221     59.03725832      3.94731781
    C     11.90325437     31.03557894     57.56953243      4.10171408
    H     10.23389960     26.60968074     68.77361794      0.91955047
    C     14.21611312     29.67739587     57.99965408      4.10193078
    C     12.83780897     30.99113201     56.63930852      4.07677384
    H     11.02335939     31.56377793     57.38542961      0.92046951
    C     14.00836340     30.30476530     56.85836178      4.07663716
    H     15.11232380     29.16282645     58.14632903      0.92013983
    H     12.68079682     31.48262991     55.72955821      0.91955793
    H     14.74487273     30.27600227     56.11798225      0.91967002
   36
Geometry Step: 2
    C     10.45332762     29.06182119     63.24918632      3.94382122
    C      9.48538068     29.06002012     64.26254424      4.14393743
    C     11.65542379     28.35605587     63.47112702      3.94313668
    C     10.29475550     29.73243240     62.03895272      4.14230067
    C      9.66045453     28.40959190     65.46650558      3.93793839
    H      8.57338033     29.58151249     64.10656876      0.91915903
    C     11.81449299     27.68806703     64.69228740      4.14401636
    C     12.61995953     28.35994595     62.46427333      4.14229368
    C     11.25929345     29.73628260     61.03209082      3.94313410
    H      9.38750801     30.26222780     61.88801412      0.91890637
    C      8.69531413     28.42552537     66.48364117      4.10751556
    C     10.85787480     27.70493277     65.68686502      3.93789390
    H     12.70937836     27.14374081     64.86323924      0.91882153
    H     13.52716805     27.83008553     62.61517855      0.91891068
    C     12.46141972     29.03054599     61.25403173      3.94382425
    C     11.10025328     30.40424571     59.81092958      4.14401381
    C      8.89923524     27.78503295     67.65816963      4.08141421
    H      7.78467518     28.94001775     66.35343700      0.91852087
    C     11.02775291     27.05557358     66.91759621      4.10734060
    C     13.42939465     29.03236561     60.24068503      4.14393701
    C     12.05684040     30.38737511     58.81632194      3.93789889
    H     10.20544038     30.94864988     59.63996733      0.91882305
    C     10.07459905     27.09618445     67.87758246      4.08131704
    H      8.15645879     27.81647363     68.39995053      0.91759223
    H     11.90961197     26.51793283     67.12121827      0.91867340
    H     14.34138771     28.51080673     60.39662781      0.91916169
    C     13.25428809     29.68271294     59.03667420      3.93793935
    C     11.88695781     31.03680714     57.58561781      4.10734265
    H     10.23607910     26.60075982     68.79071912      0.91769438
    C     14.21947736     29.66684772     58.01958867      4.10751571
    C     12.84014231     30.99617994     56.62564003      4.08131186
    H     11.00509312     31.57446452     57.38198402      0.91866990
    C     14.01549735     30.30730418     56.84504170      4.08140931
    H     15.13009886     29.15229806     58.14976037      0.91851801
    H     12.67862025     31.49154896     55.71246271      0.91769827
    H     14.75836466     30.27593067     56.10331957      0.91759788
   36
Geometry Step: 3
    C     10.45350163     29.06288612     63.24882512      3.94340817
    C      9.47806467     29.06622603     64.25659127      4.14210876
    C     11.65685854     28.35506698     63.47014010      3.94317672
    C     10.28577747     29.73698452     62.03792798      4.14167797
    C      9.66256916     28.41216154     65.45915307      3.93737283
    H      8.55380713     29.59374558     64.10176746      0.91975583
    C     11.82436743     27.68381280     64.69023883      4.14230500
    C     12.62894452     28.35538485     62.46529879      4.14167339
    C     11.25787154     29.73727622     61.03306618      3.94317867
    H      9.36742755     30.27469706     61.88283244      0.91978164
    C      8.68598618     28.43235086     66.47793692      4.10495101
    C     10.86018507     27.70685549     65.68094451      3.93721254
    H     12.73003773     27.13205415     64.86662848      0.91963014
    H     13.54725131     27.81761652     62.62036110      0.91978337
    C     12.46125222     29.02947742     61.25439334      3.94340906
    C     11.09037701     30.40850569     59.81296631      4.14230370
    C      8.88396346     27.79070922     67.66245076      4.08495866
    H      7.76307978     28.95383645     66.34709336      0.91989885
    C     11.03986455     27.04959427     66.91606204      4.10481507
    C     13.43669405     29.02615135     60.24664243      4.14210624
    C     12.05454589     30.38545256     58.82224253      3.93721351
    H     10.18476923     30.96034047     59.63657952      0.91962994
    C     10.08520210     27.08679333     67.88651137      4.08491463
    H      8.13821586     27.81665338     68.41963230      0.91704402
    H     11.93348988     26.50495011     67.12360151      0.91984471
    H     14.36094992     28.49858382     60.40143034      0.91976013
    C     13.25217472     29.68015244     59.04403393      3.93737373
    C     11.87485667     31.04277253     57.58715735      4.10481487
    H     10.23913365     26.58873547     68.81359375      0.91714212
    C     14.22878540     29.66001667     58.02528889      4.10494784
    C     12.82953795     31.00556733     56.61670494      4.08491535
    H     10.98122423     31.58744202     57.37960339      0.91984440
    C     14.03077740     30.30163670     56.84075946      4.08495942
    H     15.15169023     29.13848610     58.15610422      0.91990076
    H     12.67557064     31.50357102     55.68959647      0.91714235
    H     14.77659523     30.27575293     56.08363951      0.91704462
   36
Geometry Step: 4
    C     10.44804678     29.06910075     63.24430822      3.94499506
    C      9.46143833     29.07836922     64.24769282      4.13977126
    C     11.66666040     28.35042318     63.46751039      3.94506779
    C     10.26830563     29.74665092     62.03497556      4.13922289
    C      9.65663994     28.41982259     65.44969897      3.94032918
    H      8.52882393     29.61002470     64.09455800      0.91869175
    C     11.84413747     27.67397092     64.68891298      4.13973808
    C     12.64642927     28.34570753     62.46824251      4.13922231
    C     11.24808163     29.74192535     61.03569018      3.94507070
    H      9.34165765     30.29090689     61.87560798      0.91954047
    C      8.66747373     28.44103668     66.47762455      4.10447023
    C     10.87150724     27.70431663     65.67519035      3.94015947
    H     12.75710948     27.11724489     64.87051942      0.91889796
    H     13.57303163     27.80140423     62.62758861      0.91953848
    C     12.46670360     29.02326202     61.25891311      3.94499376
    C     11.07060922     30.41835424     59.81427806      4.13973607
    C      8.87454844     27.79252368     67.66870708      4.08109336
    H      7.73446322     28.97333493     66.33613830      0.92025470
    C     11.05611869     27.03745051     66.92280801      4.10446415
    C     13.45330771     29.01399450     60.25553469      4.13977066
    C     12.04323744     30.38799658     58.82800180      3.94015769
    H     10.15767862     30.97515477     59.63268979      0.91889876
    C     10.08940078     27.08070432     67.89511859      4.08095836
    H      8.11252299     27.81721271     68.44674409      0.92107003
    H     11.96705351     26.48777232     67.12463184      0.92012315
    H     14.38591694     28.48232006     60.40864300      0.91869354
    C     13.25810501     29.67250158     59.05350537      3.94032918
    C     11.85861591     31.05490080     57.58040822      4.10446392
    H     10.24388938     26.57172403     68.84539858      0.92115217
    C     14.24727886     29.65131840     58.02559146      4.10446976
    C     12.82534013     31.01164619     56.60809421      4.08095909
    H     10.94767893     31.60460775     57.37857941      0.92012394
    C     14.04019675     30.29983727     56.83450778      4.08109433
    H     15.18029612     29.11900079     58.16705972      0.92025743
    H     12.67082168     31.52058224     55.65780069      0.92115144
    H     14.80227295     30.27519581     56.05652564      0.92106887
   36
Geometry Step: 5
    C     10.44432617     29.07251559     63.24179562      3.94575532
    C      9.45289731     29.08422518     64.24420801      4.13937498
    C     11.67201284     28.34780910     63.46676975      3.94563490
    C     10.25850547     29.75254584     62.03286856      4.13912394
    C      9.65052661     28.42286134     65.44991696      3.94326783
    H      8.51963592     29.61672636     64.09067998      0.91775720
    C     11.85423842     27.66870240     64.68866727      4.13944872
    C     12.65623300     28.33980983     62.47034257      4.13912459
    C     11.24272824     29.74454202     61.03643451      3.94563596
    H      9.33253277     30.29681071     61.87256324      0.91803813
    C      8.65943189     28.44203310     66.48352146      4.10225616
    C     10.87703410     27.70063403     65.67749038      3.94312541
    H     12.76776601     27.11194262     64.87136285      0.91785861
    H     13.58216637     27.79549735     62.63063527      0.91803654
    C     12.47042116     29.01984780     61.26142370      3.94575310
    C     11.06050667     30.42362686     59.81452378      4.13944779
    C      8.87020806     27.79332713     67.67157314      4.07986894
    H      7.72454137     28.98091522     66.33056243      0.92124305
    C     11.05920091     27.03199295     66.93060297      4.10223802
    C     13.46184639     29.00813139     60.25901503      4.13937601
    C     12.03771204     30.39168593     58.82570424      3.94312454
    H     10.14701567     30.98045662     59.63184642      0.91785944
    C     10.09117767     27.07783336     67.89925634      4.07990967
    H      8.10571427     27.81725093     68.45427794      0.92196147
    H     11.97993591     26.48185154     67.12354836      0.92119304
    H     14.39510053     28.47562363     60.41252383      0.91775696
    C     13.26421949     29.66946709     59.05329050      3.94326811
    C     11.85553818     31.06035322     57.57260829      4.10223707
    H     10.24499708     26.56706319     68.85418307      0.92194530
    C     14.25531613     29.65031539     58.01969112      4.10225637
    C     12.82356164     31.01451334     56.60395589      4.07991006
    H     10.93480707     31.61052046     57.37966673      0.92119343
    C     14.04454000     30.29903754     56.83164804      4.07986929
    H     15.19021149     29.11142767     58.17263576      0.92124436
    H     12.66971736     31.52524527     55.64901823      0.92194454
    H     14.80907574     30.27515802     56.04898767      0.92196112
   36
Geometry Step: 6
    C     10.44142226     29.07453346     63.24053967      3.94673406
    C      9.44907598     29.08572462     64.24528433      4.13873289
    C     11.67511330     28.34614133     63.46697625      3.94648883
    C     10.25409167     29.75546426     62.03172085      4.13830880
    C      9.64676389     28.42361549     65.45231044      3.94460814
    H      8.51594678     29.62017132     64.08782327      0.91793976
    C     11.85722091     27.66602866     64.69079331      4.13882946
    C     12.66064622     28.33689022     62.47148811      4.13830859
    C     11.23962597     29.74621104     61.03623136      3.94648851
    H      9.32861318     30.29947701     61.87086085      0.91754775
    C      8.65471619     28.44174280     66.48895025      4.10219651
    C     10.87927453     27.69810128     65.68055244      3.94449736
    H     12.77297811     27.10987611     64.87103187      0.91791612
    H     13.58609354     27.79282913     62.63233851      0.91754737
    C     12.47332158     29.01783059     61.26267691      3.94673258
    C     11.05752257     30.42630424     59.81240112      4.13882980
    C      8.86946737     27.79204050     67.67502866      4.07919781
    H      7.72231423     28.98343178     66.32753811      0.92098725
    C     11.05966437     27.02872899     66.93696588      4.10219950
    C     13.46566789     29.00662911     60.25793298      4.13873401
    C     12.03547033     30.39422403     58.82264540      3.94449722
    H     10.14180109     30.98252089     59.63217706      0.91791663
    C     10.08956063     27.07707826     67.90243277      4.07914882
    H      8.10568725     27.81703063     68.45494011      0.92179712
    H     11.98402297     26.48057429     67.12187509      0.92102764
    H     14.39879048     28.47217944     60.41538341      0.91793877
    C     13.26798025     29.66871509     59.05089710      3.94460779
    C     11.85507559     31.06361525     57.56624244      4.10219922
    H     10.24468632     26.56680500     68.85487328      0.92184331
    C     14.26003190     29.65060226     58.01426166      4.10219793
    C     12.82517868     31.01526667     56.60077895      4.07914869
    H     10.93072563     31.61179220     57.38134210      0.92102713
    C     14.04528260     30.30032480     56.82819574      4.07919760
    H     15.19243556     29.10891486     58.17566053      0.92098671
    H     12.67003039     31.52550639     55.64832761      0.92184281
    H     14.80909975     30.27537801     56.04832153      0.92179751
   36
Geometry Step: 7
    C     10.43958845     29.07504921     63.24096996      3.94716757
    C      9.44683014     29.08580861     64.24789844      4.13863768
    C     11.67584353     28.34523374     63.46826530      3.94679523
    C     10.25151175     29.75740407     62.03089583      4.13828834
    C      9.64404605     28.42273261     65.45699128      3.94523582
    H      8.51430857     29.62262370     64.08503995      0.91821280
    C     11.85787156     27.66423086     64.69366431      4.13881969
    C     12.66322494     28.33494918     62.47231233      4.13828750
    C     11.23889368     29.74711978     61.03494497      3.94679412
    H      9.32598171     30.30140669     61.86930862      0.91719870
    C      8.65220026     28.44050564     66.49413992      4.10208277
    C     10.87901574     27.69588596     65.68547007      3.94512382
    H     12.77648542     27.10900176     64.87017785      0.91807732
    H     13.58873102     27.79089900     62.63389085      0.91719935
    C     12.47515325     29.01731395     61.26224384      3.94716705
    C     11.05687101     30.42810643     59.80953495      4.13882038
    C      8.86957187     27.79040725     67.67824931      4.07897585
    H      7.72265861     28.98422640     66.32542198      0.92079165
    C     11.05855340     27.02683090     66.94223742      4.10211526
    C     13.46791325     29.00654314     60.25531453      4.13863829
    C     12.03572651     30.39644501     58.81773148      3.94512417
    H     10.13829155     30.98339204     59.63303053      0.91807765
    C     10.08733206     27.07677155     67.90520115      4.07895311
    H      8.10785510     27.81647255     68.45396726      0.92130191
    H     11.98508765     26.48084326     67.12009706      0.92085446
    H     14.40043151     28.46972631     60.41816984      0.91821207
    C     13.27069547     29.66959953     59.04621416      3.94523525
    C     11.85618716     31.06551151     57.56096972      4.10211531
    H     10.24355163     26.56791508     68.85340606      0.92136897
    C     14.26254757     29.65183828     58.00907218      4.10208404
    C     12.82740813     31.01557233     56.59800977      4.07895292
    H     10.92966388     31.61151861     57.38312126      0.92085374
    C     14.04518015     30.30195748     56.82497637      4.07897555
    H     15.19209040     29.10812231     58.17777781      0.92079044
    H     12.67116757     31.52439992     55.64979369      0.92136867
    H     14.80692939     30.27593532     56.04928996      0.92130258
   36
Geometry Step: 8
    C     10.43862426     29.07474211     63.24225224      3.94738421
    C      9.44618839     29.08489182     64.25095544      4.13860622
    C     11.67528225     28.34480991     63.46986900      3.94701721
    C     10.25131145     29.75781702     62.03068749      4.13809378
    C      9.64306344     28.42130898     65.46093268      3.94498888
    H      8.51417616     29.62395469     64.08304212      0.91857880
    C     11.85662317     27.66347923     64.69652514      4.13880028
    C     12.66342455     28.33453481     62.47252094      4.13809284
    C     11.23945473     29.74754421     61.03334191      3.94701593
    H      9.32434186     30.30271939     61.86803876      0.91753564
    C      8.65154866     28.43953561     66.49680428      4.10220711
    C     10.87751048     27.69478582     65.68924858      3.94489368
    H     12.77825443     27.10897721     64.86933717      0.91842289
    H     13.59037357     27.78958762     62.63516021      0.91753657
    C     12.47611674     29.01761881     61.26096031      3.94738438
    C     11.05811909     30.42886230     59.80667811      4.13880079
    C      8.86978480     27.78910976     67.68061374      4.07913946
    H      7.72394813     28.98397780     66.32452835      0.92056112
    C     11.05744056     27.02617300     66.94486702      4.10224506
    C     13.46855410     29.00745846     60.25225542      4.13860646
    C     12.03723052     30.39754905     58.81395549      3.94489416
    H     10.13652001     30.98341383     59.63387078      0.91842293
    C     10.08569529     27.07655577     67.90712744      4.07903443
    H      8.10967210     27.81572218     68.45377938      0.92087319
    H     11.98449524     26.48160884     67.11903312      0.92062687
    H     14.40056610     28.46839460     60.42016992      0.91857861
    C     13.27167581     29.67102383     59.04227141      3.94498813
    C     11.85730054     31.06616802     57.55834045      4.10224518
    H     10.24219455     26.56879561     68.85268954      0.92099172
    C     14.26319853     29.65280877     58.00640817      4.10220815
    C     12.82904641     31.01578755     56.59608265      4.07903427
    H     10.93025657     31.61075012     57.38418524      0.92062640
    C     14.04496830     30.30325465     56.82261070      4.07913929
    H     15.19080156     29.10837158     58.17867301      0.92056012
    H     12.67252700     31.52352232     55.65050958      0.92099159
    H     14.80511058     30.27668473     56.04947420      0.92087364
   36
Geometry Step: 9
    C     10.43819231     29.07406886     63.24390657      3.94741988
    C      9.44613435     29.08391506     64.25350185      4.13863521
    C     11.67418097     28.34460074     63.47149175      3.94708700
    C     10.25191270     29.75767342     62.03068699      4.13811235
    C      9.64294902     28.41995878     65.46377294      3.94452947
    H      8.51480636     29.62464631     64.08166194      0.91878688
    C     11.85510491     27.66318708     64.69882448      4.13885338
    C     12.66282327     28.33467671     62.47252190      4.13811154
    C     11.24055695     29.74775353     61.03171901      3.94708608
    H      9.32341486     30.30362487     61.86688227      0.91797874
    C      8.65171618     28.43874227     66.49820872      4.10219620
    C     10.87575841     27.69430899     65.69191682      3.94443199
    H     12.77898689     27.10941239     64.86868763      0.91865202
    H     13.59130154     27.78868452     62.63631598      0.91797939
    C     12.47654882     29.01828913     61.25930537      3.94742020
    C     11.05963785     30.42915869     59.80438148      4.13885365
    C      8.86961404     27.78837494     67.68215032      4.07929565
    H      7.72511464     28.98348883     66.32428638      0.92047718
    C     11.05652797     27.02603812     66.94611025      4.10225793
    C     13.46860698     29.00843340     60.24970875      4.13863504
    C     12.03898240     30.39802857     58.81128912      3.94443236
    H     10.13578422     30.98297629     59.63452016      0.91865193
    C     10.08488742     27.07612712     67.90860188      4.07922448
    H      8.11039633     27.81480174     68.45515257      0.92073399
    H     11.98362592     26.48222345     67.11859725      0.92050139
    H     14.39993686     28.46770283     60.42155164      0.91878704
    C     13.27178886     29.67237431     59.03943069      3.94452889
    C     11.85821393     31.06630194     57.55709781      4.10225802
    H     10.24077284     26.56894083     68.85363334      0.92082658
    C     14.26303008     29.65360329     58.00500366      4.10219674
    C     12.82985550     31.01621598     56.59460750      4.07922436
    H     10.93112496     31.61013328     57.38462055      0.92050137
    C     14.04513950     30.30398929     56.82107211      4.07929562
    H     15.18963590     29.10886090     58.17891687      0.92047682
    H     12.67395120     31.52337951     55.64956588      0.92082649
    H     14.80438489     30.27760405     56.04809755      0.92073416
   36
Geometry Step: 10
    C     10.43787754     29.07353853     63.24531736      3.94745125
    C      9.44626770     29.08313493     64.25544157      4.13861200
    C     11.67326526     28.34437550     63.47286492      3.94718811
    C     10.25277685     29.75731697     62.03076495      4.13807167
    C      9.64297850     28.41897618     65.46564914      3.94413237
    H      8.51586744     29.62499656     64.08070892      0.91887709
    C     11.85377195     27.66309397     64.70060425      4.13881838
    C     12.66195940     28.33503134     62.47244408      4.13807117
    C     11.24147419     29.74797867     61.03034550      3.94718758
    H      9.32314027     30.30419915     61.86571672      0.91843083
    C      8.65197292     28.43811066     66.49913877      4.10213191
    C     10.87442264     27.69402551     65.69368921      3.94405754
    H     12.77908211     27.11014882     64.86826370      0.91878208
    H     13.59157677     27.78811319     62.63748084      0.91843105
    C     12.47686370     29.01881612     61.25789437      3.94745150
    C     11.06097171     30.42925620     59.80260391      4.13881841
    C      8.86902018     27.78785304     67.68364382      4.07943195
    H      7.72596710     28.98299409     66.32439596      0.92044822
    C     11.05578344     27.02593754     66.94702558      4.10219618
    C     13.46847256     29.00921132     60.24776921      4.13861170
    C     12.04031898     30.39831418     58.80951804      3.94405783
    H     10.13568489     30.98223753     59.63494422      0.91878190
    C     10.08451570     27.07542517     67.91015517      4.07932538
    H      8.11023234     27.81368356     68.45793846      0.92075070
    H     11.98289899     26.48255642     67.11861407      0.92045376
    H     14.39887575     28.46735294     60.42250582      0.91887734
    C     13.27175890     29.67335696     59.03755505      3.94413197
    C     11.85895925     31.06640208     57.55618289      4.10219615
    H     10.23921982     26.56842673     68.85610704      0.92084072
    C     14.26277258     29.65423608     58.00407332      4.10213220
    C     12.83022803     31.01691795     56.59305363      4.07932532
    H     10.93185064     31.60979801     57.38460279      0.92045408
    C     14.04573349     30.30451104     56.81957642      4.07943200
    H     15.18878377     29.10935628     58.17880945      0.92044840
    H     12.67550705     31.52389591     55.64709291      0.92084061
    H     14.80454744     30.27872083     56.04530793      0.92075062
   36
Geometry Step: 11
    C     10.43755135     29.07311214     63.24668411      3.94749304
    C      9.44651381     29.08243069     64.25728597      4.13854291
    C     11.67241531     28.34408520     63.47423240      3.94730615
    C     10.25381038     29.75691090     62.03078275      4.13804760
    C      9.64280457     28.41807922     65.46744865      3.94388697
    H      8.51758938     29.62525694     64.07981048      0.91888353
    C     11.85244596     27.66308467     64.70235821      4.13875506
    C     12.66092624     28.33543492     62.47242601      4.13804762
    C     11.24232601     29.74826870     61.02897796      3.94730609
    H      9.32361286     30.30454980     61.86411372      0.91882746
    C      8.65208390     28.43719677     66.50073941      4.10197163
    C     10.87322862     27.69357654     65.69553530      3.94381791
    H     12.77870392     27.11139698     64.86797577      0.91882765
    H     13.59110568     27.78776676     62.63908309      0.91882718
    C     12.47718956     29.01923806     61.25652708      3.94749307
    C     11.06229938     30.42927154     59.80085257      4.13875481
    C      8.86786656     27.78715932     67.68596791      4.07944485
    H      7.72676817     28.98238314     66.32479536      0.92047967
    C     11.05480571     27.02560051     66.94857545      4.10205855
    C     13.46822517     29.00991223     60.24592498      4.13854266
    C     12.04151445     30.39876585     58.80767359      3.94381811
    H     10.13605699     30.98098587     59.63523274      0.91882747
    C     10.08403839     27.07421069     67.91273868      4.07937849
    H      8.10946286     27.81194574     68.46282169      0.92088944
    H     11.98214322     26.48270892     67.11902611      0.92045516
    H     14.39715321     28.46709323     60.42340566      0.91888367
    C     13.27193304     29.67425421     59.03575677      3.94388688
    C     11.85993797     31.06673911     57.55463318      4.10205838
    H     10.23690126     26.56727003     68.86062409      0.92093392
    C     14.26266096     29.65515137     58.00247220      4.10197171
    C     12.83070596     31.01813263     56.59046957      4.07937852
    H     10.93260472     31.60964192     57.38418921      0.92045571
    C     14.04688717     30.30520430     56.81724984      4.07944489
    H     15.18798238     29.10996870     58.17841322      0.92048030
    H     12.67782988     31.52505600     55.64257717      0.92093375
    H     14.80531472     30.28045636     56.04041924      0.92088920
   36
Geometry Step: 12
    C     10.43729611     29.07295033     63.24762025      3.94752521
    C      9.44696009     29.08186483     64.25885966      4.13845628
    C     11.67176235     28.34381162     63.47531771      3.94743041
    C     10.25492128     29.75652100     62.03069234      4.13800835
    C      9.64220340     28.41729910     65.46932245      3.94389788
    H      8.51995789     29.62546134     64.07909170      0.91883938
    C     11.85117779     27.66324445     64.70391326      4.13865615
    C     12.65981551     28.33582179     62.47251556      4.13800846
    C     11.24298068     29.74854199     61.02789302      3.94743072
    H      9.32521373     30.30449189     61.86203768      0.91904768
    C      8.65186327     28.43586858     66.50346484      4.10176492
    C     10.87232226     27.69282273     65.69759158      3.94385075
    H     12.77780003     27.11320684     64.86798599      0.91881349
    H     13.58950805     27.78783004     62.64115851      0.91904701
    C     12.47744346     29.01939449     61.25558984      3.94752501
    C     11.06356982     30.42911928     59.79930091      4.13865600
    C      8.86615723     27.78599899     67.68972124      4.07937925
    H      7.72747780     28.98160212     66.32564131      0.92055590
    C     11.05334882     27.02486837     66.95132036      4.10185755
    C     13.46777752     29.01047387     60.24435071      4.13845593
    C     12.04242274     30.39952319     58.80561927      3.94385091
    H     10.13695317     30.97917081     59.63522382      0.91881338
    C     10.08314226     27.07243793     67.91674101      4.07928045
    H      8.10833501     27.80946595     68.46979981      0.92103270
    H     11.98132133     26.48261778     67.11999767      0.92053299
    H     14.39478386     28.46688946     60.42412618      0.91883925
    C     13.27253512     29.67503523     59.03388472      3.94389807
    C     11.86139592     31.06747187     57.55188823      4.10185738
    H     10.23361471     26.56554741     68.86715078      0.92107073
    C     14.26288131     29.65648104     57.99974627      4.10176482
    C     12.83160264     31.01990580     56.58646682      4.07928050
    H     10.93342452     31.60972785     57.38321536      0.92053359
    C     14.04859656     30.30636366     56.81349400      4.07937924
    H     15.18727164     29.11075221     58.17757157      0.92055668
    H     12.68112233     31.52678352     55.63605232      0.92107051
    H     14.80643926     30.28293259     56.03343358      0.92103245
   36
Geometry Step: 13
    C     10.43733264     29.07314114     63.24762209      3.94750484
    C      9.44759833     29.08160369     64.25958522      4.13838524
    C     11.67149500     28.34379281     63.47554827      3.94746006
    C     10.25572743     29.75631050     62.03045130      4.13798758
    C      9.64132075     28.41684424     65.47079655      3.94422287
    H      8.52207975     29.62558943     64.07897747      0.91881918
    C     11.85032549     27.66363328     64.70465880      4.13859902
    C     12.65900905     28.33602986     62.47275543      4.13798817
    C     11.24324849     29.74856063     61.02766317      3.94746042
    H      9.32765436     30.30391478     61.86018450      0.91892481
    C      8.65133069     28.43438245     66.50684167      4.10157809
    C     10.87195127     27.69195615     65.69936978      3.94416434
    H     12.77666326     27.11497438     64.86849135      0.91878811
    H     13.58707184     27.78841192     62.64301160      0.91892420
    C     12.47740489     29.01919945     61.25558628      3.94750469
    C     11.06442416     30.42873641     59.79855834      4.13859861
    C      8.86450317     27.78459955     67.69392566      4.07920432
    H      7.72778510     28.98082014     66.32692657      0.92068098
    C     11.05175222     27.02391461     66.95460268      4.10169376
    C     13.46713824     29.01073162     60.24362384      4.13838528
    C     12.04279511     30.40039312     58.80384284      3.94416451
    H     10.13808378     30.97739768     59.63472029      0.91878809
    C     10.08183219     27.07067104     67.92116280      4.07913888
    H      8.10749516     27.80698812     68.47642204      0.92108704
    H     11.98056386     26.48225502     67.12146919      0.92065963
    H     14.39266151     28.46676130     60.42424189      0.91881886
    C     13.27341906     29.67549187     59.03241191      3.94422322
    C     11.86299327     31.06842679     57.54860579      4.10169349
    H     10.23030740     26.56396205     68.87330962      0.92110106
    C     14.26341419     29.65796826     57.99636928      4.10157808
    C     12.83291314     31.02167321     56.58204503      4.07913903
    H     10.93418008     31.61008537     57.38174140      0.92066005
    C     14.05025073     30.30776177     56.80928811      4.07920412
    H     15.18696294     29.11153690     58.17629035      0.92068157
    H     12.68443528     31.52837397     55.62989515      0.92110090
    H     14.80727537     30.28540641     56.02680436      0.92108688
   36
Geometry Step: 14
    C     10.43761967     29.07348567     63.24692756      3.94742501
    C      9.44814041     29.08162734     64.25945738      4.13837629
    C     11.67152900     28.34405877     63.47505649      3.94738938
    C     10.25598180     29.75629120     62.03022003      4.13798128
    C      9.64066351     28.41674191     65.47148125      3.94457097
    H      8.52285766     29.62566229     64.07955198      0.91887897
    C     11.85003278     27.66408764     64.70453087      4.13858459
    C     12.65875406     28.33604846     62.47298585      4.13798161
    C     11.24321356     29.74829470     61.02815532      3.94738954
    H      9.32953803     30.30323642     61.85937230      0.91861812
    C      8.65082742     28.43344262     66.50915213      4.10151931
    C     10.87201990     27.69143209     65.70024026      3.94451178
    H     12.77595170     27.11583084     64.86931232      0.91882431
    H     13.58519158     27.78909238     62.64382429      0.91861787
    C     12.47711618     29.01885385     61.25627933      3.94742513
    C     11.06471751     30.42828336     59.79868747      4.13858435
    C      8.86371754     27.78357715     67.69664140      4.07912480
    H      7.72755730     28.98029393     66.32827082      0.92077371
    C     11.05067227     27.02323418     66.95685580      4.10162983
    C     13.46659588     29.01070721     60.24375026      4.13837630
    C     12.04272660     30.40091886     58.80297305      3.94451193
    H     10.13879390     30.97653771     59.63390090      0.91882430
    C     10.08076923     27.06974570     67.92382935      4.07901037
    H      8.10745164     27.80564680     68.47950287      0.92097954
    H     11.98005476     26.48178987     67.12292226      0.92077659
    H     14.39188376     28.46668748     60.42366785      0.91887870
    C     13.27407709     29.67559627     59.03172741      3.94457129
    C     11.86407337     31.06910830     57.54635270      4.10162965
    H     10.22847400     26.56330801     68.87611115      0.92102495
    C     14.26391807     29.65890848     57.99405912      4.10151931
    C     12.83397642     31.02259898     56.57937886      4.07901053
    H     10.93468820     31.61054775     57.38028678      0.92077681
    C     14.05103644     30.30878322     56.80657242      4.07912457
    H     15.18719011     29.11206456     58.17494807      0.92077396
    H     12.68627142     31.52903099     55.62709441      0.92102489
    H     14.80731621     30.28674489     56.02372052      0.92097947
   36
Geometry Step: 15
    C     10.43785477     29.07371943     63.24637127      3.94734621
    C      9.44840879     29.08170605     64.25922807      4.13838550
    C     11.67156171     28.34437362     63.47458946      3.94729439
    C     10.25598044     29.75631948     62.03006357      4.13798140
    C      9.64036915     28.41673884     65.47174994      3.94475305
    H      8.52266148     29.62574736     64.08038990      0.91897084
    C     11.84996371     27.66441540     64.70428194      4.13859949
    C     12.65875497     28.33602049     62.47314194      4.13798153
    C     11.24317977     29.74797976     61.02862223      3.94729432
    H      9.33035660     30.30285266     61.85925434      0.91839809
    C      8.65052584     28.43302840     66.51024202      4.10152956
    C     10.87208801     27.69125064     65.70060063      3.94467333
    H     12.77572532     27.11597326     64.87014672      0.91889621
    H     13.58437466     27.78947665     62.64394293      0.91839817
    C     12.47688035     29.01862080     61.25683476      3.94734657
    C     11.06478624     30.42795384     59.79893613      4.13859934
    C      8.86361074     27.78307877     67.69769999      4.07908558
    H      7.72706172     28.97995676     66.32952217      0.92082472
    C     11.05021598     27.02289932     66.95783313      4.10165031
    C     13.46632760     29.01062941     60.24397875      4.13838546
    C     12.04265793     30.40110074     58.80261263      3.94467343
    H     10.13902167     30.97639382     59.63306755      0.91889614
    C     10.08015381     27.06948886     67.92482294      4.07899614
    H      8.10780007     27.80521807     68.48002438      0.92087623
    H     11.97967241     26.48135923     67.12418875      0.92082283
    H     14.39208021     28.46660122     60.42282962      0.91897074
    C     13.27437168     29.67560116     59.03145837      3.94475328
    C     11.86452952     31.06944386     57.54537552      4.10165019
    H     10.22785583     26.56327585     68.87648711      0.92091590
    C     14.26422012     29.65932279     57.99296971      4.10152955
    C     12.83459215     31.02285618     56.57838576      4.07899628
    H     10.93507017     31.61097768     57.37901951      0.92082296
    C     14.05114316     30.30928125     56.80551452      4.07908538
    H     15.18768593     29.11240203     58.17369713      0.92082477
    H     12.68689014     31.52906430     55.62671872      0.92091595
    H     14.80696621     30.28717188     56.02319888      0.92087618
   36
Geometry Step: 16
    C     10.43796960     29.07390959     63.24604558      3.94727485
    C      9.44850744     29.08176565     64.25925427      4.13839918
    C     11.67149215     28.34470351     63.47435468      3.94721212
    C     10.25598466     29.75630643     62.02992205      4.13796697
    C      9.64012165     28.41668190     65.47213641      3.94482336
    H      8.52209815     29.62589725     64.08160873      0.91907226
    C     11.84982986     27.66472047     64.70428663      4.13859480
    C     12.65875042     28.33603418     62.47328317      4.13796685
    C     11.24324828     29.74764942     61.02885648      3.94721185
    H      9.33077554     30.30263871     61.85923334      0.91826289
    C      8.65023334     28.43272358     66.51107377      4.10156174
    C     10.87202384     27.69114397     65.70103642      3.94474425
    H     12.77561842     27.11596182     64.87127654      0.91899014
    H     13.58395690     27.78969121     62.64396482      0.91826326
    C     12.47676524     29.01843184     61.25715977      3.94727544
    C     11.06491929     30.42764540     59.79893045      4.13859474
    C      8.86364089     27.78265703     67.69844519      4.07912065
    H      7.72629446     28.97948933     66.33134828      0.92085254
    C     11.04984357     27.02259381     66.95861042      4.10166971
    C     13.46622922     29.01057152     60.24395196      4.13839907
    C     12.04272136     30.40120759     58.80217641      3.94474429
    H     10.13913093     30.97640408     59.63193888      0.91899000
    C     10.07967242     27.06932334     67.92543351      4.07899882
    H      8.10825378     27.80490335     68.48011125      0.92077176
    H     11.97910802     26.48076215     67.12597424      0.92085543
    H     14.39264354     28.46644981     60.42160995      0.91907238
    C     13.27461933     29.67566032     59.03107157      3.94482347
    C     11.86490172     31.06975014     57.54459842      4.10166965
    H     10.22739334     26.56332057     68.87642894      0.92082830
    C     14.26451311     29.65962784     57.99213864      4.10156169
    C     12.83507395     31.02302230     56.57777583      4.07899893
    H     10.93563415     31.61157452     57.37723314      0.92085551
    C     14.05111276     30.30970286     56.80477027      4.07912052
    H     15.18845394     29.11286941     58.17187115      0.92085248
    H     12.68735276     31.52902053     55.62677730      0.92082842
    H     14.80651069     30.28748440     56.02311265      0.92077168
   36
Geometry Step: 17
    C     10.43786487     29.07415775     63.24601750      3.94720791
    C      9.44838841     29.08182925     64.25983008      4.13839894
    C     11.67125440     28.34514747     63.47447395      3.94713113
    C     10.25608829     29.75621177     62.02968440      4.13792312
    C      9.63967194     28.41649364     65.47305511      3.94482886
    H      8.52104475     29.62621727     64.08401732      0.91919654
    C     11.84948580     27.66513672     64.70486262      4.13856513
    C     12.65864664     28.33612987     62.47352034      4.13792197
    C     11.24348483     29.74720407     61.02873597      3.94713072
    H      9.33108595     30.30252749     61.85906913      0.91818718
    C      8.64970162     28.43222423     66.51244510      4.10159614
    C     10.87169927     27.69095881     65.70206222      3.94473845
    H     12.77543071     27.11600595     64.87348066      0.91911650
    H     13.58364797     27.78980430     62.64413063      0.91818778
    C     12.47687008     29.01818552     61.25718703      3.94720860
    C     11.06526183     30.42722266     59.79835220      4.13856580
    C      8.86363102     27.78201815     67.69953662      4.07916190
    H      7.72475208     28.97848626     66.33514918      0.92088292
    C     11.04931354     27.02202988     66.95984924      4.10170376
    C     13.46634884     29.01051105     60.24337565      4.13839819
    C     12.04304494     30.40139301     58.80114967      3.94473834
    H     10.13932234     30.97635800     59.62973679      0.91911630
    C     10.07897094     27.06894546     67.92641415      4.07906605
    H      8.10885221     27.80425213     68.48065352      0.92069729
    H     11.97788365     26.47954954     67.12965626      0.92086574
    H     14.39369622     28.46612722     60.41919942      0.91919689
    C     13.27506952     29.67585256     59.03015275      3.94482882
    C     11.86543137     31.07031552     57.54335984      4.10170398
    H     10.22649277     26.56320200     68.87668232      0.92073267
    C     14.26504570     29.66012792     57.99076864      4.10159579
    C     12.83577615     31.02340157     56.57679637      4.07906600
    H     10.93685758     31.61278674     57.37354927      0.92086578
    C     14.05112198     30.31034172     56.80368044      4.07916204
    H     15.18999781     29.11387238     58.16807060      0.92088274
    H     12.68825373     31.52914094     55.62652502      0.92073286
    H     14.80590880     30.28813102     56.02257133      0.92069718
   36
Geometry Step: 18
    C     10.43732845     29.07443246     63.24660833      3.94719584
    C      9.44784946     29.08190877     64.26125489      4.13838247
    C     11.67086274     28.34553069     63.47530370      3.94712659
    C     10.25632643     29.75600085     62.02939627      4.13784069
    C      9.63894259     28.41616640     65.47461787      3.94471303
    H      8.51972433     29.62668465     64.08758491      0.91926330
    C     11.84892740     27.66555172     64.70634854      4.13847985
    C     12.65840881     28.33634189     62.47380788      4.13783969
    C     11.24387579     29.74681806     61.02790433      3.94712605
    H      9.33115202     30.30264210     61.85860785      0.91825936
    C      8.64888069     28.43159390     66.51427386      4.10163705
    C     10.87107825     27.69066074     65.70376088      3.94464055
    H     12.77505836     27.11628159     64.87670974      0.91920878
    H     13.58358326     27.78969348     62.64459406      0.91826009
    C     12.47740742     29.01791244     61.25659566      3.94719655
    C     11.06581824     30.42679891     59.79686282      4.13848038
    C      8.86341462     27.78118950     67.70103426      4.07925223
    H      7.72247877     28.97689123     66.34098522      0.92087601
    C     11.04863557     27.02118007     66.96161432      4.10171809
    C     13.46688873     29.01043560     60.24195084      4.13838201
    C     12.04366535     30.40169137     58.79944957      3.94464033
    H     10.13969814     30.97607987     59.62651030      0.91920853
    C     10.07820488     27.06823854     67.92776891      4.07912572
    H      8.10929852     27.80315252     68.48221385      0.92069981
    H     11.97597386     26.47769961     67.13526682      0.92084950
    H     14.39501459     28.46565672     60.41562864      0.91926386
    C     13.27580005     29.67618486     59.02859071      3.94471280
    C     11.86610880     31.07116743     57.54159485      4.10171825
    H     10.22505125     26.56266472     68.87783177      0.92073131
    C     14.26586790     29.66075971     57.98894177      4.10163673
    C     12.83654306     31.02411089     56.57544327      4.07912573
    H     10.93876572     31.61463600     57.36793582      0.92084942
    C     14.05133733     30.31117045     56.80218480      4.07925243
    H     15.19227301     29.11546752     58.16223527      0.92087576
    H     12.68969629     31.52968114     55.62537760      0.92073149
    H     14.80545753     30.28922339     56.02101147      0.92069969
   36
Geometry Step: 19
    C     10.43654012     29.07458983     63.24767674      3.94727855
    C      9.44707714     29.08200149     64.26293642      4.13833962
    C     11.67058623     28.34558181     63.47655029      3.94723078
    C     10.25657345     29.75577631     62.02921341      4.13776102
    C      9.63824050     28.41590182     65.47605439      3.94455354
    H      8.51891493     29.62703620     64.09056663      0.91919726
    C     11.84847949     27.66571995     64.70814182      4.13838745
    C     12.65816263     28.33656682     62.47399051      4.13776020
    C     11.24415257     29.74676395     61.02665626      3.94723042
    H      9.33092163     30.30294771     61.85803055      0.91846585
    C      8.64812774     28.43114211     66.51573509      4.10164880
    C     10.87047700     27.69037437     65.70532311      3.94448726
    H     12.77459981     27.11676993     64.87934252      0.91917519
    H     13.58381429     27.78939185     62.64517293      0.91846636
    C     12.47819707     29.01775537     61.25552753      3.94727897
    C     11.06626484     30.42662471     59.79506666      4.13838792
    C      8.86299933     27.78062866     67.70215070      4.07926944
    H      7.72061865     28.97548575     66.34595196      0.92083279
    C     11.04822292     27.02045304     66.96301079      4.10172533
    C     13.46766200     29.01034552     60.24027017      4.13833939
    C     12.04426691     30.40197776     58.79788625      3.94448696
    H     10.14015719     30.97558986     59.62387901      0.91917506
    C     10.07774327     27.06749023     67.92891344      4.07919257
    H      8.10917919     27.80212473     68.48425384      0.92084005
    H     11.97432352     26.47612735     67.13997565      0.92078656
    H     14.39582150     28.46530334     60.41264397      0.91919770
    C     13.27650365     29.67645259     59.02715560      3.94455324
    C     11.86652094     31.07189612     57.54019822      4.10172546
    H     10.22379199     26.56183465     68.87952920      0.92082824
    C     14.26662202     29.66121312     57.98748204      4.10164854
    C     12.83700509     31.02486154     56.57430002      4.07919261
    H     10.94041450     31.61620769     57.36322449      0.92078633
    C     14.05175173     30.31173149     56.80106952      4.07926968
    H     15.19413419     29.11687344     58.15726928      0.92083249
    H     12.69095688     31.53051381     55.62368214      0.92082833
    H     14.80557315     30.29024475     56.01897068      0.92084002
   36
Geometry Step: 20
    C     10.43611031     29.07458948     63.24836325      3.94735293
    C      9.44665200     29.08209079     64.26370299      4.13832590
    C     11.67058774     28.34540683     63.47726039      3.94733550
    C     10.25663488     29.75567297     62.02924845      4.13774866
    C      9.63797706     28.41587969     65.47652021      3.94446965
    H      8.51891418     29.62705642     64.09146168      0.91907958
    C     11.84842190     27.66567904     64.70896184      4.13835053
    C     12.65810194     28.33666991     62.47395577      4.13774805
    C     11.24415174     29.74693755     61.02594594      3.94733536
    H      9.33067373     30.30312788     61.85781086      0.91860713
    C      8.64786384     28.43113326     66.51601273      4.10164706
    C     10.87028445     27.69030105     65.70577809      3.94442277
    H     12.77431380     27.11711875     64.88002048      0.91907298
    H     13.58406200     27.78921320     62.64539287      0.91860734
    C     12.47862768     29.01775496     61.25484189      3.94735303
    C     11.06632225     30.42666527     59.79424597      4.13835094
    C      8.86271341     27.78058158     67.70232337      4.07927350
    H      7.72014515     28.97506173     66.34733229      0.92078188
    C     11.04821561     27.02028133     66.96331553      4.10170742
    C     13.46808761     29.01025636     60.23950468      4.13832583
    C     12.04446020     30.40205063     58.79743102      3.94442251
    H     10.14044110     30.97524114     59.62320054      0.91907302
    C     10.07779717     27.06719889     67.92910046      4.07918282
    H      8.10874423     27.80185336     68.48515674      0.92095072
    H     11.97385928     26.47569224     67.14118159      0.92074764
    H     14.39582112     28.46528331     60.41174779      0.91907977
    C     13.27676792     29.67647436     59.02669084      3.94446941
    C     11.86652805     31.07206812     57.53989327      4.10170749
    H     10.22355045     26.56131856     68.88035904      0.92094370
    C     14.26688634     29.66122288     57.98720468      4.10164688
    C     12.83695110     31.02515379     56.57411327      4.07918288
    H     10.94087818     31.61664293     57.36201794      0.92074736
    C     14.05203748     30.31177871     56.80089671      4.07927366
    H     15.19460742     29.11729786     58.15588911      0.92078159
    H     12.69119897     31.53103064     55.62285292      0.92094372
    H     14.80600779     30.29051414     56.01806670      0.92095077
   36
Geometry Step: 21
    C     10.43602840     29.07457008     63.24858047      3.94738211
    C      9.44657641     29.08215290     64.26387179      4.13831904
    C     11.67068349     28.34531289     63.47741545      3.94737635
    C     10.25661936     29.75564234     62.02931847      4.13775123
    C      9.63793389     28.41594685     65.47654894      3.94446481
    H      8.51907020     29.62699544     64.09153989      0.91902569
    C     11.84847636     27.66567779     64.70911970      4.13835081
    C     12.65811780     28.33670022     62.47388619      4.13775081
    C     11.24405627     29.74703118     61.02579110      3.94737635
    H      9.33059564     30.30313925     61.85781153      0.91864492
    C      8.64781304     28.43120966     66.51598443      4.10164622
    C     10.87028345     27.69032258     65.70576705      3.94441444
    H     12.77419973     27.11728993     64.87998637      0.91902018
    H     13.58414002     27.78920195     62.64539209      0.91864499
    C     12.47870981     29.01777371     61.25462530      3.94738207
    C     11.06626787     30.42666788     59.79408838      4.13835112
    C      8.86258347     27.78063777     67.70225665      4.07924120
    H      7.72017099     28.97507662     66.34724661      0.92076376
    C     11.04829998     27.02032029     66.96324829      4.10170996
    C     13.46816335     29.01019375     60.23933656      4.13831904
    C     12.04446157     30.40202865     58.79744222      3.94441423
    H     10.14055324     30.97507038     59.62323364      0.91902030
    C     10.07785741     27.06714162     67.92905448      4.07917871
    H      8.10841173     27.80190849     68.48530890      0.92099742
    H     11.97389899     26.47570856     67.14099016      0.92073129
    H     14.39566504     28.46534482     60.41166937      0.91902574
    C     13.27681135     29.67640610     59.02666254      3.94446466
    C     11.86644364     31.07202891     57.53996042      4.10170999
    H     10.22370977     26.56109667     68.88051681      0.92098218
    C     14.26693720     29.66114688     57.98723286      4.10164610
    C     12.83689075     31.02521124     56.57415914      4.07917878
    H     10.94083843     31.61662697     57.36220955      0.92073102
    C     14.05216758     30.31172259     56.80096295      4.07924129
    H     15.19458106     29.11728320     58.15597465      0.92076350
    H     12.69103971     31.53125253     55.62269509      0.92098218
    H     14.80634104     30.29045892     56.01791381      0.92099751
   36
Geometry Step: 22
    C     10.43602406     29.07456753     63.24872727      3.94739140
    C      9.44658248     29.08222782     64.26402087      4.13831828
    C     11.67078782     28.34527732     63.47748310      3.94740126
    C     10.25658445     29.75561230     62.02940278      4.13775350
    C      9.63788508     28.41601683     65.47663993      3.94447162
    H      8.51919543     29.62696130     64.09165390      0.91899847
    C     11.84851755     27.66575116     64.70922017      4.13835204
    C     12.65815304     28.33672990     62.47380244      4.13775375
    C     11.24395205     29.74706659     61.02572377      3.94740131
    H      9.33055642     30.30310410     61.85784024      0.91865670
    C      8.64774043     28.43127283     66.51604081      4.10164878
    C     10.87027480     27.69035878     65.70578248      3.94442678
    H     12.77412654     27.11747448     64.87998263      0.91899309
    H     13.58417952     27.78923705     62.64536334      0.91865670
    C     12.47871423     29.01777559     61.25447915      3.94739134
    C     11.06622665     30.42659624     59.79398843      4.13835185
    C      8.86243128     27.78063178     67.70231500      4.07922605
    H      7.72017646     28.97512694     66.34709962      0.92075265
    C     11.04832477     27.02036391     66.96326260      4.10170674
    C     13.46815744     29.01011825     60.23918812      4.13831871
    C     12.04447038     30.40199196     58.79742711      3.94442663
    H     10.14062428     30.97488610     59.62323607      0.91899322
    C     10.07785661     27.06707075     67.92906609      4.07915671
    H      8.10805219     27.80199054     68.48537867      0.92100909
    H     11.97398074     26.47572903     67.14069758      0.92073060
    H     14.39554013     28.46537949     60.41155522      0.91899846
    C     13.27686024     29.67633492     59.02657189      3.94447154
    C     11.86641886     31.07198489     57.53994610      4.10170659
    H     10.22392549     26.56085139     68.88058153      0.92100623
    C     14.26700981     29.66108420     57.98717632      4.10164884
    C     12.83689154     31.02528225     56.57414737      4.07915687
    H     10.94075676     31.61660693     57.36250249      0.92073036
    C     14.05232007     30.31172866     56.80090401      4.07922601
    H     15.19457501     29.11723316     58.15612142      0.92075245
    H     12.69082404     31.53149789     55.62263017      0.92100623
    H     14.80670146     30.29037676     56.01784320      0.92100918
   36
Geometry Step: 23
    C     10.43610081     29.07458770     63.24897566      3.94739131
    C      9.44670748     29.08239645     64.26434156      4.13831578
    C     11.67100075     28.34530719     63.47752567      3.94742479
    C     10.25651729     29.75553571     62.02957955      4.13775517
    C      9.63779918     28.41617104     65.47690654      3.94449924
    H      8.51938670     29.62691888     64.09203947      0.91898205
    C     11.84856669     27.66602370     64.70938212      4.13836177
    C     12.65822080     28.33680574     62.47362698      4.13775526
    C     11.24373896     29.74703664     61.02568194      3.94742504
    H      9.33050641     30.30295918     61.85797395      0.91865829
    C      8.64758347     28.43137100     66.51627934      4.10165084
    C     10.87023152     27.69047813     65.70586758      3.94445399
    H     12.77400945     27.11788137     64.88008900      0.91897312
    H     13.58423056     27.78938160     62.64522974      0.91865811
    C     12.47863742     29.01775418     61.25423200      3.94739114
    C     11.06617716     30.42632738     59.79382782      4.13836172
    C      8.86211207     27.78056466     67.70250437      4.07918047
    H      7.72012651     28.97523718     66.34684341      0.92074835
    C     11.04832216     27.02047536     66.96331892      4.10170485
    C     13.46803277     29.00994849     60.23886868      4.13831589
    C     12.04451350     30.40187158     58.79734281      3.94445392
    H     10.14073709     30.97447945     59.62312658      0.91897331
    C     10.07776389     27.06691395     67.92914201      4.07913370
    H      8.10727999     27.80220547     68.48535305      0.92101101
    H     11.97412363     26.47576528     67.14006140      0.92073767
    H     14.39535014     28.46542282     60.41116941      0.91898191
    C     13.27694597     29.67617839     59.02630577      3.94449936
    C     11.86642154     31.07187250     57.53988984      4.10170477
    H     10.22446988     26.56031556     68.88050905      0.92101762
    C     14.26716665     29.66098712     57.98693746      4.10165084
    C     12.83698430     31.02543927     56.57407110      4.07913376
    H     10.94061430     31.61657173     57.36313958      0.92073757
    C     14.05263999     30.31179598     56.80071332      4.07918042
    H     15.19462386     29.11712347     58.15637704      0.92074825
    H     12.69027963     31.53203392     55.62270214      0.92101764
    H     14.80747556     30.29016150     56.01786711      0.92101108
   36
Geometry Step: 24
    C     10.43625391     29.07464992     63.24920505      3.94737140
    C      9.44694267     29.08259702     64.26474074      4.13831871
    C     11.67119898     28.34546310     63.47752121      3.94742556
    C     10.25645728     29.75543175     62.02977011      4.13775329
    C      9.63773356     28.41634082     65.47731030      3.94452047
    H      8.51950752     29.62692043     64.09265201      0.91900435
    C     11.84857087     27.66645027     64.70954779      4.13837073
    C     12.65828135     28.33690900     62.47343788      4.13775344
    C     11.24354040     29.74688090     61.02568724      3.94742591
    H      9.33044705     30.30273638     61.85820642      0.91864528
    C      8.64741055     28.43145995     66.51661863      4.10166070
    C     10.87015203     27.69067923     65.70602941      3.94448303
    H     12.77393788     27.11835194     64.88036529      0.91899166
    H     13.58429129     27.78960385     62.64499765      0.91864501
    C     12.47848420     29.01769082     61.25400380      3.94737126
    C     11.06617227     30.42590456     59.79366378      4.13837064
    C      8.86177261     27.78041994     67.70279504      4.07915225
    H      7.71999866     28.97533978     66.34668380      0.92075199
    C     11.04823272     27.02061458     66.96341797      4.10170222
    C     13.46779796     29.00974685     60.23847057      4.13831861
    C     12.04459231     30.40166943     58.79718187      3.94448307
    H     10.14080440     30.97400866     59.62284657      0.91899180
    C     10.07759746     27.06673530     67.92922832      4.07910296
    H      8.10641687     27.80247365     68.48513670      0.92097872
    H     11.97420769     26.47579516     67.13938369      0.92075724
    H     14.39523122     28.46542213     60.41055670      0.91900418
    C     13.27701099     29.67600642     59.02590235      3.94452077
    C     11.86651114     31.07173215     57.53979096      4.10170216
    H     10.22515510     26.55969080     68.88020580      0.92100933
    C     14.26733927     29.66089935     57.98659783      4.10166068
    C     12.83715095     31.02561809     56.57398437      4.07910296
    H     10.94053104     31.61654316     57.36381852      0.92075732
    C     14.05298029     30.31194093     56.80042128      4.07915213
    H     15.19475068     29.11702142     58.15653581      0.92075205
    H     12.68959421     31.53265900     55.62300479      0.92100938
    H     14.80834070     30.28989280     56.01808180      0.92097876
   36
Geometry Step: 25
    C     10.43636857     29.07476367     63.24934479      3.94735059
    C      9.44715107     29.08276890     64.26507880      4.13831890
    C     11.67128378     28.34570531     63.47752120      3.94740368
    C     10.25645152     29.75533690     62.02985971      4.13774305
    C      9.63773168     28.41647900     65.47766153      3.94452274
    H      8.51946874     29.62698432     64.09338194      0.91904859
    C     11.84853616     27.66686138     64.70969483      4.13837258
    C     12.65828736     28.33700363     62.47334906      4.13774324
    C     11.24345529     29.74663908     61.02568783      3.94740397
    H      9.33038700     30.30252593     61.85845850      0.91863356
    C      8.64728936     28.43149596     66.51692055      4.10167651
    C     10.87008318     27.69091070     65.70621373      3.94448667
    H     12.77393315     27.11870360     64.88082413      0.91903533
    H     13.58435233     27.78981395     62.64474623      0.91863332
    C     12.47836945     29.01757677     61.25386445      3.94735056
    C     11.06620619     30.42549485     59.79351763      4.13837247
    C      8.86156464     27.78027352     67.70301295      4.07913664
    H      7.71977748     28.97533371     66.34690003      0.92076233
    C     11.04811573     27.02070029     66.96348190      4.10171549
    C     13.46758982     29.00957461     60.23813276      4.13831869
    C     12.04466008     30.40143745     58.79699808      3.94448676
    H     10.14080736     30.97365613     59.62238523      0.91903535
    C     10.07743544     27.06659408     67.92928573      4.07910478
    H      8.10582679     27.80264229     68.48483345      0.92094501
    H     11.97409711     26.47576179     67.13912627      0.92076579
    H     14.39527166     28.46535858     60.40982667      0.91904846
    C     13.27701200     29.67586766     59.02555110      3.94452311
    C     11.86662836     31.07164577     57.53972718      4.10171547
    H     10.22566307     26.55920585     68.87979171      0.92097751
    C     14.26746001     29.66086391     57.98629578      4.10167648
    C     12.83731319     31.02575932     56.57392675      4.07910468
    H     10.94064261     31.61657750     57.36407698      0.92076601
    C     14.05318874     30.31208756     56.80020271      4.07913657
    H     15.19497152     29.11702775     58.15631885      0.92076252
    H     12.68908587     31.53314429     55.62341857      0.92097762
    H     14.80893172     30.28972351     56.01838449      0.92094497
   36
Geometry Step: 26
    C     10.43639922     29.07488976     63.24937975      3.94733705
    C      9.44723681     29.08287885     64.26525846      4.13832361
    C     11.67124456     28.34592760     63.47756357      3.94737331
    C     10.25648560     29.75528873     62.02982776      4.13773741
    C      9.63776695     28.41655485     65.47786248      3.94450621
    H      8.51934058     29.62709614     64.09393831      0.91908213
    C     11.84850707     27.66710511     64.70980341      4.13836972
    C     12.65825318     28.33705208     62.47338088      4.13773735
    C     11.24349443     29.74641724     61.02564554      3.94737345
    H      9.33034587     30.30240627     61.85861313      0.91862673
    C      8.64725211     28.43147638     66.51708187      4.10169108
    C     10.87005901     27.69108699     65.70636849      3.94447562
    H     12.77398453     27.11886619     64.88127394      0.91906988
    H     13.58439372     27.78993365     62.64459229      0.91862660
    C     12.47833883     29.01745114     61.25382909      3.94733712
    C     11.06623475     30.42525002     59.79340900      4.13836979
    C      8.86151930     27.78016444     67.70313452      4.07914949
    H      7.71956948     28.97523497     66.34735152      0.92077214
    C     11.04799093     27.02070472     66.96352194      4.10172444
    C     13.46750412     29.00946498     60.23795252      4.13832319
    C     12.04468339     30.40126136     58.79684328      3.94447571
    H     10.14075686     30.97349232     59.62193489      0.91906980
    C     10.07733974     27.06651505     67.92931404      4.07911290
    H      8.10564573     27.80262710     68.48465381      0.92092198
    H     11.97386904     26.47568233     67.13930671      0.92077141
    H     14.39540056     28.46524667     60.40927030      0.91908210
    C     13.27697606     29.67579277     59.02534989      3.94450652
    C     11.86675332     31.07164133     57.53968725      4.10172452
    H     10.22580454     26.55896324     68.87952575      0.92095475
    C     14.26749682     29.66088329     57.98613451      4.10169097
    C     12.83740901     31.02583823     56.57389842      4.07911274
    H     10.94087148     31.61665727     57.36389702      0.92077165
    C     14.05323402     30.31219666     56.80008140      4.07914950
    H     15.19517984     29.11712648     58.15586703      0.92077238
    H     12.68894409     31.53338714     55.62368466      0.92095486
    H     14.80911244     30.28973815     56.01856464      0.92092190
   36
Geometry Step: 27
    C     10.43638078     29.07502596     63.24940666      3.94733559
    C      9.44725937     29.08298567     64.26539312      4.13832310
    C     11.67118992     28.34611124     63.47765825      3.94735021
    C     10.25652809     29.75526813     62.02974683      4.13773263
    C      9.63778648     28.41662396     65.47803056      3.94449961
    H      8.51925478     29.62725652     64.09432568      0.91909998
    C     11.84850647     27.66726935     64.70993659      4.13836469
    C     12.65821052     28.33707304     62.47346131      4.13773257
    C     11.24354926     29.74623403     61.02555078      3.94735020
    H      9.33031802     30.30233449     61.85866864      0.91862599
    C      8.64723912     28.43141083     66.51725705      4.10169028
    C     10.87006235     27.69122308     65.70655056      3.94446806
    H     12.77406846     27.11901634     64.88166125      0.91908734
    H     13.58442145     27.79000579     62.64453741      0.91862598
    C     12.47835741     29.01731548     61.25380152      3.94733576
    C     11.06623514     30.42508403     59.79327538      4.13836478
    C      8.86148635     27.78005970     67.70327870      4.07914813
    H      7.71942429     28.97512254     66.34778721      0.92078687
    C     11.04785123     27.02066599     66.96360046      4.10172494
    C     13.46748145     29.00935850     60.23781700      4.13832276
    C     12.04467960     30.40112579     58.79666099      3.94446816
    H     10.14067451     30.97334074     59.62154783      0.91908715
    C     10.07724046     27.06641892     67.92942585      4.07912353
    H      8.10556805     27.80247643     68.48470396      0.92091901
    H     11.97364022     26.47560393     67.13955384      0.92077823
    H     14.39548653     28.46508628     60.40888305      0.91910002
    C     13.27695616     29.67572499     59.02518153      3.94449980
    C     11.86689320     31.07168033     57.53960876      4.10172505
    H     10.22573584     26.55874677     68.87949792      0.92094165
    C     14.26750941     29.66094831     57.98595945      4.10169017
    C     12.83750831     31.02593416     56.57378668      4.07912337
    H     10.94110097     31.61673568     57.36365018      0.92077843
    C     14.05326668     30.31230132     56.79993772      4.07914820
    H     15.19532537     29.11723891     58.15543129      0.92078709
    H     12.68901264     31.53360389     55.62371286      0.92094175
    H     14.80918928     30.28988837     56.01851523      0.92091891
   36
Geometry Step: 28
    C     10.43636787     29.07516458     63.24934362      3.94734371
    C      9.44726092     29.08309042     64.26535222      4.13831900
    C     11.67114890     28.34624678     63.47771409      3.94733405
    C     10.25654578     29.75529279     62.02963962      4.13772812
    C      9.63786700     28.41672028     65.47801692      3.94450175
    H      8.51923725     29.62744912     64.09431060      0.91910767
    C     11.84857959     27.66733584     64.70995843      4.13835577
    C     12.65819255     28.33704884     62.47356770      4.13772787
    C     11.24359069     29.74609912     61.02549480      3.94733390
    H      9.33027289     30.30230735     61.85868547      0.91862290
    C      8.64730043     28.43137610     66.51726118      4.10168825
    C     10.87014810     27.69136310     65.70659307      3.94447266
    H     12.77424659     27.11908914     64.88177597      0.91909302
    H     13.58446604     27.79003321     62.64452103      0.91862299
    C     12.47837043     29.01717755     61.25386365      3.94734392
    C     11.06616224     30.42501551     59.79325291      4.13835599
    C      8.86150655     27.78001969     67.70331854      4.07915148
    H      7.71947194     28.97512361     66.34780410      0.92079890
    C     11.04776067     27.02064182     66.96358005      4.10172140
    C     13.46747958     29.00925396     60.23785676      4.13831863
    C     12.04459376     30.40098652     58.79661814      3.94447272
    H     10.14049841     30.97326651     59.62143396      0.91909282
    C     10.07721721     27.06637424     67.92946676      4.07912091
    H      8.10559660     27.80229669     68.48475552      0.92091713
    H     11.97356260     26.47564488     67.13949024      0.92078695
    H     14.39550388     28.46489388     60.40889857      0.91910775
    C     13.27687540     29.67563013     59.02519478      3.94450180
    C     11.86698399     31.07170488     57.53962918      4.10172158
    H     10.22559668     26.55862585     68.87951622      0.92093632
    C     14.26744762     29.66098204     57.98595528      4.10168811
    C     12.83753146     31.02597837     56.57374578      4.07912075
    H     10.94117924     31.61669457     57.36371405      0.92078708
    C     14.05324600     30.31234112     56.79989855      4.07915161
    H     15.19527806     29.11723779     58.15541453      0.92079906
    H     12.68915165     31.53372486     55.62369499      0.92093638
    H     14.80915974     30.29006831     56.01846473      0.92091704
   36
Geometry Step: 29
    C     10.43636072     29.07560261     63.24935268      3.94737025
    C      9.44731623     29.08353939     64.26544298      4.13830846
    C     11.67115123     28.34668484     63.47797216      3.94730495
    C     10.25658689     29.75529843     62.02941313      4.13771971
    C      9.63807323     28.41713423     65.47813219      3.94451361
    H      8.51931263     29.62804225     64.09454806      0.91910782
    C     11.84882936     27.66772891     64.71018982      4.13833631
    C     12.65815098     28.33704434     62.47379242      4.13771926
    C     11.24358972     29.74566263     61.02523650      3.94730450
    H      9.33012606     30.30213437     61.85879003      0.91862535
    C      8.64743584     28.43132378     66.51739563      4.10168610
    C     10.87036680     27.69188491     65.70679289      3.94448794
    H     12.77468023     27.11961051     64.88224904      0.91908817
    H     13.58461145     27.79020713     62.64441790      0.91862564
    C     12.47837809     29.01674099     61.25385269      3.94737052
    C     11.06591306     30.42461792     59.79301996      4.13833666
    C      8.86141810     27.77985960     67.70349099      4.07913653
    H      7.71961614     28.97511331     66.34787268      0.92082811
    C     11.04747874     27.02064155     66.96353095      4.10171633
    C     13.46742349     29.00880520     60.23776338      4.13830821
    C     12.04437524     30.40046625     58.79641753      3.94448795
    H     10.14006844     30.97274091     59.62096200      0.91908794
    C     10.07708832     27.06613825     67.92960179      4.07911318
    H      8.10532767     27.80178874     68.48489330      0.92092058
    H     11.97330473     26.47576952     67.13906346      0.92080942
    H     14.39542819     28.46430204     60.40866206      0.91910796
    C     13.27666875     29.67521911     59.02507873      3.94451331
    C     11.86726657     31.07170600     57.53967835      4.10171661
    H     10.22538845     26.55794413     68.87951356      0.92092741
    C     14.26731084     29.66103191     57.98582057      4.10168600
    C     12.83765995     31.02621319     56.57361067      4.07911304
    H     10.94143901     31.61657026     57.36414210      0.92080939
    C     14.05333320     30.31250053     56.79972741      4.07913676
    H     15.19513424     29.11724816     58.15534610      0.92082813
    H     12.68935939     31.53440688     55.62369883      0.92092738
    H     14.80942658     30.29057659     56.01832940      0.92092050
   36
Geometry Step: 30
    C     10.43640354     29.07596875     63.24946859      3.94739276
    C      9.44737745     29.08401971     64.26559419      4.13830685
    C     11.67125947     28.34704886     63.47824388      3.94729779
    C     10.25658786     29.75526767     62.02929334      4.13772331
    C      9.63823928     28.41758468     65.47825383      3.94451953
    H      8.51946458     29.62858557     64.09478120      0.91908603
    C     11.84909511     27.66816644     64.71046773      4.13832594
    C     12.65814996     28.33707601     62.47391120      4.13772300
    C     11.24348255     29.74529950     61.02496454      3.94729723
    H      9.32999356     30.30195288     61.85888083      0.91863051
    C      8.64756400     28.43134268     66.51748897      4.10169052
    C     10.87053450     27.69239195     65.70694928      3.94450252
    H     12.77500547     27.12022428     64.88263925      0.91906324
    H     13.58474269     27.79038943     62.64432818      0.91863085
    C     12.47833590     29.01637586     61.25373583      3.94739297
    C     11.06564797     30.42417739     59.79274063      4.13832618
    C      8.86130049     27.77972730     67.70358165      4.07912919
    H      7.71982269     28.97510764     66.34784652      0.92084145
    C     11.04726296     27.02070925     66.96345418      4.10171051
    C     13.46736176     29.00832490     60.23761076      4.13830689
    C     12.04420834     30.39995991     58.79626048      3.94450247
    H     10.13974479     30.97212377     59.62057214      0.91906306
    C     10.07697904     27.06590265     67.92964041      4.07910738
    H      8.10501102     27.80134042     68.48492263      0.92092023
    H     11.97310318     26.47589344     67.13852265      0.92082751
    H     14.39527579     28.46376031     60.40842947      0.91908615
    C     13.27650296     29.67476995     59.02495662      3.94451904
    C     11.86748275     31.07163899     57.53975525      4.10171076
    H     10.22527110     26.55724214     68.87941232      0.92092503
    C     14.26718180     29.66101126     57.98572686      4.10169051
    C     12.83776877     31.02644802     56.57357195      4.07910735
    H     10.94164177     31.61644731     57.36468401      0.92082736
    C     14.05344975     30.31263207     56.79963744      4.07912943
    H     15.19492760     29.11725392     58.15537237      0.92084136
    H     12.68947630     31.53510909     55.62380094      0.92092491
    H     14.80974202     30.29102522     56.01830177      0.92092018
   36
Geometry Step: 31
    C     10.43652290     29.07638926     63.24969302      3.94741329
    C      9.44747433     29.08470741     64.26579786      4.13830483
    C     11.67152393     28.34747590     63.47856706      3.94731055
    C     10.25654931     29.75518409     62.02923297      4.13772504
    C      9.63842898     28.41822778     65.47837569      3.94452671
    H      8.51966361     29.62930254     64.09510227      0.91904751
    C     11.84946821     27.66881464     64.71086066      4.13831416
    C     12.65818879     28.33716071     62.47397103      4.13772479
    C     11.24321909     29.74487276     61.02464084      3.94731005
    H      9.32983483     30.30172360     61.85895683      0.91864214
    C      8.64771885     28.43145169     66.51756922      4.10170572
    C     10.87071280     27.69304411     65.70708692      3.94451417
    H     12.77536655     27.12108843     64.88312907      0.91902652
    H     13.58490005     27.79061963     62.64425324      0.91864242
    C     12.47821735     29.01595646     61.25351119      3.94741331
    C     11.06527574     30.42352641     59.79234583      4.13831436
    C      8.86116234     27.77957181     67.70358275      4.07911047
    H      7.72007879     28.97510361     66.34782395      0.92084551
    C     11.04709526     27.02084738     66.96332776      4.10171559
    C     13.46726453     29.00763738     60.23740648      4.13830512
    C     12.04403179     30.39930774     58.79612204      3.94451405
    H     10.13938400     30.97125608     59.62008226      0.91902648
    C     10.07684203     27.06559427     67.92958553      4.07910691
    H      8.10462335     27.80076227     68.48484510      0.92092683
    H     11.97290020     26.47598557     67.13784975      0.92083862
    H     14.39507595     28.46304549     60.40810862      0.91904755
    C     13.27631428     29.67412695     59.02483452      3.94452608
    C     11.86765066     31.07150175     57.53988188      4.10171577
    H     10.22512956     26.55632371     68.87917141      0.92092585
    C     14.26702653     29.66090071     57.98564609      4.10170585
    C     12.83790511     31.02675589     56.57362681      4.07910697
    H     10.94184546     31.61635714     57.36535811      0.92083835
    C     14.05358656     30.31278648     56.79963652      4.07911070
    H     15.19467109     29.11725792     58.15539507      0.92084527
    H     12.68961730     31.53602773     55.62404268      0.92092567
    H     14.81012883     30.29160370     56.01838089      0.92092679
   36
Geometry Step: 32
    C     10.43675492     29.07684383     63.25001684      3.94741730
    C      9.44762777     29.08560292     64.26607247      4.13831104
    C     11.67193067     28.34798564     63.47892236      3.94733356
    C     10.25645542     29.75504036     62.02924563      4.13773424
    C      9.63862038     28.41904177     65.47854188      3.94452755
    H      8.51987426     29.63021928     64.09552651      0.91900343
    C     11.84993580     27.66971257     64.71136574      4.13830623
    C     12.65828333     28.33730579     62.47395852      4.13773426
    C     11.24281285     29.74436250     61.02428470      3.94733329
    H      9.32966621     30.30145483     61.85898572      0.91864950
    C      8.64790089     28.43166028     66.51765437      4.10172415
    C     10.87087262     27.69381360     65.70724369      3.94452570
    H     12.77576701     27.12219476     64.88376038      0.91898921
    H     13.58506758     27.79088933     62.64422522      0.91864963
    C     12.47798627     29.01550318     61.25318802      3.94741703
    C     11.06480908     30.42262611     59.79183858      4.13830620
    C      8.86103653     27.77936694     67.70348641      4.07910241
    H      7.72032223     28.97508780     66.34790554      0.92084461
    C     11.04697536     27.02106336     66.96319210      4.10171338
    C     13.46711107     29.00674241     60.23713247      4.13831169
    C     12.04387444     30.39853740     58.79596439      3.94452545
    H     10.13898233     30.97014626     59.61945043      0.91898940
    C     10.07667566     27.06521083     67.92940332      4.07911210
    H      8.10426420     27.80002700     68.48459480      0.92092703
    H     11.97268806     26.47598438     67.13719679      0.92085347
    H     14.39486438     28.46213111     60.40768412      0.91900336
    C     13.27612468     29.67331173     59.02466820      3.94452694
    C     11.86777043     31.07128688     57.54001792      4.10171339
    H     10.22489316     26.55523855     68.87871615      0.92092554
    C     14.26684476     29.66069108     57.98556026      4.10172445
    C     12.83807066     31.02713936     56.57380906      4.07911233
    H     10.94205759     31.61636140     57.36601207      0.92085309
    C     14.05371083     30.31298988     56.79973252      4.07910248
    H     15.19442717     29.11727339     58.15531364      0.92084424
    H     12.68985313     31.53711315     55.62449853      0.92092528
    H     14.81048761     30.29233919     56.01863232      0.92092705
   36
Geometry Step: 33
    C     10.43715858     29.07743893     63.25049268      3.94739828
    C      9.44791995     29.08693226     64.26647333      4.13831997
    C     11.67256969     28.34872745     63.47933905      3.94736956
    C     10.25627656     29.75480399     62.02932587      4.13774319
    C      9.63886244     28.42019844     65.47882075      3.94452986
    H      8.52013276     29.63161235     64.09607979      0.91896314
    C     11.85060308     27.67111184     64.71209032      4.13830037
    C     12.65846337     28.33754397     62.47387943      4.13774342
    C     11.24217343     29.74361901     61.02386672      3.94736970
    H      9.32944669     30.30111047     61.85890867      0.91865366
    C      8.64812262     28.43204028     66.51781295      4.10174990
    C     10.87105165     27.69485595     65.70748154      3.94453362
    H     12.77635734     27.12379319     64.88468209      0.91896172
    H     13.58528656     27.79123467     62.64430299      0.91865352
    C     12.47758356     29.01490982     61.25271406      3.94739762
    C     11.06414269     30.42122475     59.79111141      4.13830013
    C      8.86092491     27.77902402     67.70327103      4.07908438
    H      7.72054106     28.97510789     66.34810473      0.92083810
    C     11.04694595     27.02138838     66.96305372      4.10171245
    C     13.46681946     29.00541435     60.23673375      4.13832093
    C     12.04369850     30.39749309     58.79572549      3.94453319
    H     10.13838902     30.96854366     59.61852746      0.91896221
    C     10.07642148     27.06464604     67.92906778      4.07912950
    H      8.10390757     27.79890983     68.48412646      0.92092974
    H     11.97247634     26.47583205     67.13648865      0.92086521
    H     14.39460501     28.46074073     60.40713019      0.91896293
    C     13.27588525     29.67215208     59.02438929      3.94452946
    C     11.86779936     31.07096343     57.54015689      4.10171218
    H     10.22441315     26.55375195     68.87794206      0.92091780
    C     14.26662426     29.66031048     57.98540084      4.10175040
    C     12.83832375     31.02770482     56.57414476      4.07912987
    H     10.94226844     31.61651857     57.36672090      0.92086480
    C     14.05382053     30.31333074     56.79994659      4.07908427
    H     15.19420794     29.11725235     58.15511465      0.92083756
    H     12.69033250     31.53860023     55.62527290      0.92091751
    H     14.81084442     30.29345644     56.01910118      0.92092983
   36
Geometry Step: 34
    C     10.43763663     29.07804907     63.25095727      3.94736413
    C      9.44833719     29.08835084     64.26696230      4.13833046
    C     11.67322352     28.34956796     63.47970625      3.94739958
    C     10.25608627     29.75452462     62.02941703      4.13774347
    C      9.63909054     28.42137021     65.47920354      3.94452130
    H      8.52045102     29.63317855     64.09657413      0.91895352
    C     11.85126343     27.67271991     64.71285340      4.13829073
    C     12.65865489     28.33782508     62.47379017      4.13774366
    C     11.24151812     29.74277599     61.02349832      3.94740009
    H      9.32929227     30.30078029     61.85865385      0.91865119
    C      8.64830818     28.43250168     66.51807469      4.10176911
    C     10.87121434     27.69588364     65.70780233      3.94454158
    H     12.77700211     27.12552555     64.88570367      0.91896955
    H     13.58544186     27.79156559     62.64455804      0.91865089
    C     12.47710605     29.01430143     61.25225195      3.94736317
    C     11.06348248     30.41961566     59.79034662      4.13829042
    C      8.86085467     27.77856148     67.70305476      4.07908191
    H      7.72059775     28.97517580     66.34847667      0.92083024
    C     11.04702688     27.02170887     66.96304017      4.10170072
    C     13.46640345     29.00399777     60.23624790      4.13833143
    C     12.04353780     30.39646301     58.79540393      3.94454104
    H     10.13774027     30.96680747     59.61750409      0.91897026
    C     10.07614060     27.06398793     67.92870221      4.07914751
    H      8.10372529     27.79757674     68.48365872      0.92092622
    H     11.97231544     26.47549975     67.13607225      0.92087256
    H     14.39428687     28.45917615     60.40663518      0.91895327
    C     13.27565932     29.67097677     59.02400645      3.94452127
    C     11.86771756     31.07064462     57.54017106      4.10170028
    H     10.22361832     26.55223743     68.87712546      0.92090670
    C     14.26644065     29.65984932     57.98513832      4.10176963
    C     12.83860375     31.02836424     56.57451050      4.07914794
    H     10.94242797     31.61685588     57.36713831      0.92087211
    C     14.05388922     30.31379116     56.80016097      4.07908157
    H     15.19415158     29.11718285     58.15474292      0.92082963
    H     12.69112699     31.54011553     55.62608915      0.92090643
    H     14.81102733     30.29478926     56.01956801      0.92092643
   36
Geometry Step: 35
    C     10.43809343     29.07872260     63.25138501      3.94732664
    C      9.44887206     29.08982084     64.26756385      4.13833910
    C     11.67379711     28.35054733     63.48003796      3.94741093
    C     10.25589720     29.75424074     62.02943698      4.13773487
    C      9.63932513     28.42249962     65.47973894      3.94450872
    H      8.52084335     29.63488366     64.09704263      0.91897924
    C     11.85190611     27.67448001     64.71363529      4.13827580
    C     12.65884504     28.33811031     62.47377264      4.13773485
    C     11.24094215     29.74179394     61.02316603      3.94741164
    H      9.32914510     30.30048233     61.85825860      0.91864412
    C      8.64839529     28.43304119     66.51846328      4.10177508
    C     10.87142949     27.69689665     65.70824104      3.94454396
    H     12.77774573     27.12734338     64.88685441      0.91901448
    H     13.58559154     27.79186403     62.64495310      0.91864383
    C     12.47664950     29.01362945     61.25182667      3.94732571
    C     11.06283869     30.41785545     59.78956446      4.13827550
    C      8.86080121     27.77797959     67.70284532      4.07907944
    H      7.72037886     28.97535183     66.34903478      0.92082345
    C     11.04724580     27.02197259     66.96313463      4.10168467
    C     13.46587050     29.00253045     60.23564953      4.13833975
    C     12.04332209     30.39544769     58.79496493      3.94454348
    H     10.13699238     30.96498599     59.61635076      0.91901528
    C     10.07584468     27.06324323     67.92831717      4.07916823
    H      8.10362665     27.79608532     68.48320677      0.92092847
    H     11.97223716     26.47498817     67.13596334      0.92086864
    H     14.39389633     28.45747121     60.40616647      0.91897912
    C     13.27542541     29.66984446     59.02347088      3.94450910
    C     11.86749779     31.07038235     57.54007716      4.10168412
    H     10.22258281     26.55067600     68.87627900      0.92089453
    C     14.26635559     29.65931052     57.98474926      4.10177548
    C     12.83889919     31.02911056     56.57489569      4.07916855
    H     10.94250517     31.61737210     57.36724978      0.92086824
    C     14.05394200     30.31437132     56.80036818      4.07907905
    H     15.19437176     29.11700474     58.15418466      0.92082289
    H     12.69216238     31.54167811     55.62693487      0.92089434
    H     14.81112671     30.29628000     56.02001784      0.92092870
   36
Geometry Step: 36
    C     10.43812635     29.07881100     63.25132009      3.94731822
    C      9.44911400     29.08998837     64.26767381      4.13834156
    C     11.67374971     28.35076682     63.47995650      3.94739395
    C     10.25588673     29.75419320     62.02936804      4.13772390
    C      9.63938300     28.42252759     65.47984268      3.94449127
    H      8.52109349     29.63517124     64.09680515      0.91902073
    C     11.85194757     27.67481798     64.71362165      4.13827566
    C     12.65885554     28.33815727     62.47384279      4.13772396
    C     11.24098785     29.74157339     61.02324832      3.94739440
    H      9.32923321     30.30052865     61.85793944      0.91863751
    C      8.64831110     28.43327984     66.51850761      4.10176054
    C     10.87153884     27.69690934     65.70831382      3.94453727
    H     12.77786903     27.12758943     64.88694867      0.91905885
    H     13.58550613     27.79181728     62.64527110      0.91863742
    C     12.47661602     29.01354078     61.25189234      3.94731769
    C     11.06279518     30.41751938     59.78958037      4.13827531
    C      8.86091172     27.77781625     67.70262888      4.07910101
    H      7.72003746     28.97556424     66.34924321      0.92081011
    C     11.04759923     27.02194569     66.96321633      4.10167156
    C     13.46563008     29.00236431     60.23554069      4.13834200
    C     12.04320926     30.39543444     58.79489281      3.94453700
    H     10.13686753     30.96474094     59.61625519      0.91905943
    C     10.07590064     27.06311110     67.92807429      4.07917888
    H      8.10396166     27.79570771     68.48307775      0.92093770
    H     11.97243384     26.47467670     67.13646620      0.92084260
    H     14.39364858     28.45718122     60.40640446      0.91902082
    C     13.27536561     29.66981651     59.02336709      3.94449180
    C     11.86714402     31.07040902     57.53999549      4.10167102
    H     10.22201518     26.55065530     68.87607632      0.92089874
    C     14.26644056     29.65907309     57.98470526      4.10176079
    C     12.83884387     31.02924356     56.57513860      4.07917907
    H     10.94230820     31.61768350     57.36674859      0.92084231
    C     14.05383276     30.31453507     56.80058382      4.07910063
    H     15.19471469     29.11679116     58.15397576      0.92080976
    H     12.69273047     31.54169930     55.62713656      0.92089864
    H     14.81079235     30.29665713     56.02014421      0.92093791
   36
Geometry Step: 37
    C     10.43807672     29.07900859     63.25119593      3.94732629
    C      9.44948341     29.09015907     64.26784867      4.13835273
    C     11.67355577     28.35112533     63.47990315      3.94735132
    C     10.25593017     29.75416513     62.02916379      4.13772664
    C      9.63952844     28.42254222     65.48003050      3.94447308
    H      8.52166203     29.63546892     64.09644935      0.91906360
    C     11.85198667     27.67521041     64.71355371      4.13828833
    C     12.65881189     28.33818401     62.47404794      4.13772673
    C     11.24118060     29.74121472     61.02330351      3.94735128
    H      9.32937007     30.30054196     61.85756087      0.91862543
    C      8.64819023     28.43357228     66.51855940      4.10172952
    C     10.87179375     27.69699083     65.70845267      3.94453254
    H     12.77802088     27.12798980     64.88700042      0.91909649
    H     13.58537251     27.79180366     62.64564831      0.91862563
    C     12.47666518     29.01334224     61.25201659      3.94732640
    C     11.06275281     30.41712925     59.78965188      4.13828804
    C      8.86099012     27.77760312     67.70235837      4.07912073
    H      7.71962997     28.97593654     66.34938233      0.92079632
    C     11.04803760     27.02187100     66.96326985      4.10165067
    C     13.46526255     29.00219483     60.23536605      4.13835289
    C     12.04294864     30.39535291     58.79475519      3.94453262
    H     10.13671435     30.96434156     59.61620142      0.91909662
    C     10.07599463     27.06293482     67.92776260      4.07919035
    H      8.10423959     27.79524130     68.48295536      0.92095767
    H     11.97272858     26.47437773     67.13695773      0.92080980
    H     14.39308363     28.45688052     60.40676172      0.91906392
    C     13.27521663     29.66980344     59.02317911      3.94447359
    C     11.86670576     31.07048280     57.53994195      4.10165022
    H     10.22134119     26.55054743     68.87582665      0.92090822
    C     14.26656119     29.65878161     57.98465405      4.10172952
    C     12.83875096     31.02942028     56.57545032      4.07919024
    H     10.94201440     31.61798154     57.36625962      0.92080970
    C     14.05375648     30.31474935     56.80085392      4.07912048
    H     15.19512385     29.11641788     58.15383550      0.92079625
    H     12.69340515     31.54180788     55.62738512      0.92090830
    H     14.81051484     30.29712295     56.02026301      0.92095783
   36
Geometry Step: 38
    C     10.43843816     29.08001072     63.25153742      3.94733672
    C      9.45027772     29.09178640     64.26855299      4.13836827
    C     11.67396799     28.35245570     63.48035738      3.94732003
    C     10.25584929     29.75388940     62.02894830      4.13773099
    C      9.64004982     28.42388833     65.48060904      3.94445373
    H      8.52266741     29.63727594     64.09685969      0.91907786
    C     11.85274119     27.67719772     64.71425127      4.13828921
    C     12.65889347     28.33846014     62.47426458      4.13772985
    C     11.24076807     29.73988408     61.02285033      3.94731990
    H      9.32922661     30.30005331     61.85726894      0.91861935
    C      8.64831827     28.43423623     66.51882034      4.10173125
    C     10.87235349     27.69840991     65.70891460      3.94454630
    H     12.77889367     27.13028142     64.88813048      0.91911058
    H     13.58551818     27.79229327     62.64594038      0.91861960
    C     12.47630455     29.01234082     61.25167592      3.94733699
    C     11.06199579     30.41514108     59.78895533      4.13828992
    C      8.86082233     27.77697504     67.70199073      4.07912023
    H      7.71951117     28.97641338     66.34957917      0.92078945
    C     11.04829832     27.02214620     66.96310212      4.10163048
    C     13.46447021     29.00056929     60.23466255      4.13836733
    C     12.04238565     30.39393265     58.79429353      3.94454644
    H     10.13583839     30.96204511     59.61506752      0.91911053
    C     10.07577937     27.06210550     67.92714433      4.07920119
    H      8.10375674     27.79363205     68.48229506      0.92096561
    H     11.97275684     26.47408657     67.13627593      0.92080269
    H     14.39208150     28.45507400     60.40635296      0.91907820
    C     13.27469347     29.66845741     59.02260025      3.94445429
    C     11.86644517     31.07020786     57.54011032      4.10163037
    H     10.22040557     26.54855348     68.87465954      0.92090626
    C     14.26643268     29.65811697     57.98439258      4.10173074
    C     12.83896631     31.03024983     56.57606851      4.07920089
    H     10.94198820     31.61827642     57.36694283      0.92080283
    C     14.05392463     30.31537669     56.80122051      4.07912023
    H     15.19524356     29.11593977     58.15363729      0.92078950
    H     12.69434056     31.54380306     55.62855190      0.92090642
    H     14.81099766     30.29873176     56.02092093      0.92096577
   36
Geometry Step: 39
    C     10.43881297     29.08120426     63.25200437      3.94736438
    C      9.45110766     29.09363958     64.26938686      4.13838715
    C     11.67447324     28.35393928     63.48101601      3.94730176
    C     10.25575938     29.75359800     62.02868521      4.13774153
    C      9.64066631     28.42551157     65.48131224      3.94444443
    H      8.52386337     29.63928760     64.09749238      0.91906077
    C     11.85361402     27.67937069     64.71514918      4.13828854
    C     12.65898420     28.33875177     62.47452803      4.13774174
    C     11.24026438     29.73840125     61.02219279      3.94730139
    H      9.32899057     30.29945340     61.85703424      0.91862201
    C      8.64847269     28.43490167     66.51912098      4.10173730
    C     10.87302504     27.70013897     65.70950152      3.94456330
    H     12.77989185     27.13298701     64.88939746      0.91909375
    H     13.58575505     27.79289501     62.64617587      0.91862233
    C     12.47593150     29.01114763     61.25120928      3.94736490
    C     11.06112106     30.41296594     59.78805741      4.13828825
    C      8.86049606     27.77630668     67.70165999      4.07910285
    H      7.71957228     28.97692437     66.34973175      0.92077852
    C     11.04843754     27.02243012     66.96288914      4.10162305
    C     13.46364159     28.99871701     60.23382856      4.13838710
    C     12.04171236     30.39220263     58.79370680      3.94456372
    H     10.13483683     30.95933354     59.61379655      0.91909353
    C     10.07546496     27.06116262     67.92652831      4.07920281
    H      8.10291267     27.79187259     68.48160851      0.92097572
    H     11.97273509     26.47392513     67.13522477      0.92079767
    H     14.39088769     28.45306476     60.40572205      0.91906114
    C     13.27407610     29.66683464     59.02189717      3.94444475
    C     11.86630639     31.06992402     57.54032360      4.10162285
    H     10.21958101     26.54608790     68.87337501      0.92091398
    C     14.26627660     29.65744991     57.98409116      4.10173714
    C     12.83928086     31.03119213     56.57668453      4.07920254
    H     10.94201328     31.61844173     57.36799765      0.92079767
    C     14.05425081     30.31604445     56.80155077      4.07910264
    H     15.19518179     29.11542856     58.15348300      0.92077867
    H     12.69516485     31.54626984     55.62983706      0.92091426
    H     14.81184086     30.30049073     56.02160590      0.92097586
   36
Geometry Step: 40
    C     10.43874823     29.08124477     63.25202624      3.94738575
    C      9.45107369     29.09359255     64.26942382      4.13838771
    C     11.67444526     28.35391605     63.48112485      3.94731114
    C     10.25576675     29.75362910     62.02862197      4.13774458
    C      9.64070421     28.42554387     65.48134838      3.94444041
    H      8.52398760     29.63924774     64.09751693      0.91903976
    C     11.85361178     27.67926336     64.71519873      4.13829304
    C     12.65897684     28.33872006     62.47459043      4.13774409
    C     11.24029383     29.73842547     61.02208419      3.94731093
    H      9.32894198     30.29947627     61.85699651      0.91863459
    C      8.64844395     28.43487413     66.51907571      4.10173712
    C     10.87309534     27.70018629     65.70958170      3.94455872
    H     12.77991025     27.13304717     64.88932036      0.91906877
    H     13.58580287     27.79287267     62.64621381      0.91863474
    C     12.47599672     29.01110652     61.25118676      3.94738605
    C     11.06112355     30.41307259     59.78800734      4.13829337
    C      8.86042138     27.77633291     67.70164581      4.07910297
    H      7.71963935     28.97697556     66.34974951      0.92076917
    C     11.04841855     27.02235370     66.96288835      4.10162868
    C     13.46367505     28.99876309     60.23379080      4.13838717
    C     12.04164284     30.39215575     58.79362667      3.94455910
    H     10.13481869     30.95927362     59.61387399      0.91906864
    C     10.07544537     27.06116910     67.92651984      4.07919567
    H      8.10279386     27.79187640     68.48164503      0.92098060
    H     11.97278073     26.47399102     67.13525046      0.92079154
    H     14.39076261     28.45310550     60.40569774      0.91903994
    C     13.27403859     29.66680325     59.02186143      3.94444060
    C     11.86632581     31.06999969     57.54032433      4.10162872
    H     10.21962681     26.54601000     68.87338544      0.92092981
    C     14.26630425     29.65747706     57.98413638      4.10173677
    C     12.83930058     31.03118517     56.57669307      4.07919538
    H     10.94196856     31.61837506     57.36797201      0.92079156
    C     14.05432557     30.31601883     56.80156568      4.07910291
    H     15.19511342     29.11537840     58.15346489      0.92076925
    H     12.69511934     31.54634758     55.62982743      0.92093001
    H     14.81195881     30.30048669     56.02156965      0.92098073
   36
Geometry Step: 41
    C     10.43872664     29.08127396     63.25204781      3.94740089
    C      9.45106217     29.09350938     64.26943288      4.13838401
    C     11.67445449     28.35385815     63.48124513      3.94733145
    C     10.25575888     29.75366925     62.02856205      4.13774524
    C      9.64077258     28.42561383     65.48140361      3.94444442
    H      8.52413028     29.63920031     64.09758149      0.91902098
    C     11.85358911     27.67911174     64.71526927      4.13829699
    C     12.65898474     28.33867891     62.47464907      4.13774500
    C     11.24028695     29.73848487     61.02196392      3.94733143
    H      9.32888829     30.29951666     61.85689039      0.91864634
    C      8.64841018     28.43481637     66.51901209      4.10173410
    C     10.87318538     27.70024898     65.70971698      3.94455003
    H     12.77996403     27.13313876     64.88916165      0.91904721
    H     13.58585542     27.79283304     62.64632028      0.91864630
    C     12.47601901     29.01107633     61.25116438      3.94740096
    C     11.06114702     30.41322336     59.78793566      4.13829718
    C      8.86029451     27.77636445     67.70163032      4.07909905
    H      7.71977735     28.97707705     66.34979860      0.92075852
    C     11.04837782     27.02223361     66.96293183      4.10164093
    C     13.46368550     28.99884451     60.23378063      4.13838374
    C     12.04155497     30.39209358     58.79349152      3.94455034
    H     10.13476511     30.95918271     59.61403353      0.91904720
    C     10.07536346     27.06117064     67.92652469      4.07918630
    H      8.10260575     27.79188225     68.48166349      0.92098202
    H     11.97288666     26.47410177     67.13535870      0.92078543
    H     14.39061817     28.45315462     60.40563332      0.91902095
    C     13.27397144     29.66673427     59.02180711      3.94444439
    C     11.86636723     31.07011838     57.54028081      4.10164095
    H     10.21969851     26.54588493     68.87335671      0.92094618
    C     14.26633640     29.65753453     57.98419988      4.10173397
    C     12.83938274     31.03118297     56.57668846      4.07918618
    H     10.94186378     31.61826300     57.36786341      0.92078546
    C     14.05445238     30.31598834     56.80158216      4.07909901
    H     15.19497282     29.11527876     58.15341527      0.92075851
    H     12.69504826     31.54647238     55.62985765      0.92094625
    H     14.81214540     30.30048031     56.02155175      0.92098209
   36
Geometry Step: 42
    C     10.43879003     29.08126818     63.25204188      3.94739546
    C      9.45110284     29.09343687     64.26940400      4.13838123
    C     11.67450080     28.35380055     63.48129056      3.94734682
    C     10.25573482     29.75369323     62.02854604      4.13774602
    C      9.64084654     28.42568743     65.48144515      3.94445109
    H      8.52422187     29.63917114     64.09766217      0.91901653
    C     11.85356879     27.67901514     64.71530402      4.13830619
    C     12.65900892     28.33865406     62.47466403      4.13774672
    C     11.24024226     29.73854367     61.02191827      3.94734690
    H      9.32887838     30.29954781     61.85674800      0.91864517
    C      8.64839676     28.43476860     66.51896196      4.10172927
    C     10.87324629     27.70028733     65.70983840      3.94454339
    H     12.78002585     27.13322306     64.88899561      0.91904079
    H     13.58586475     27.79280229     62.64646297      0.91864501
    C     12.47595587     29.01108135     61.25116969      3.94739537
    C     11.06116832     30.41331964     59.78789983      4.13830570
    C      8.86017896     27.77636866     67.70162098      4.07909988
    H      7.71990634     28.97719810     66.34987198      0.92075499
    C     11.04834458     27.02214123     66.96301171      4.10165061
    C     13.46364373     28.99891530     60.23380888      4.13838175
    C     12.04149633     30.39205560     58.79337034      3.94454357
    H     10.13470346     30.95909922     59.61420049      0.91904086
    C     10.07525403     27.06115123     67.92653373      4.07917845
    H      8.10244460     27.79187898     68.48163549      0.92097559
    H     11.97300596     26.47419919     67.13554025      0.92078412
    H     14.39052510     28.45318523     60.40555262      0.91901636
    C     13.27389883     29.66666124     59.02176634      3.94445094
    C     11.86640101     31.07020942     57.54020096      4.10165039
    H     10.21973917     26.54576936     68.87329090      0.92095417
    C     14.26634859     29.65758251     57.98424988      4.10172948
    C     12.83949234     31.03120203     56.57667974      4.07917861
    H     10.94174525     31.61816427     57.36768127      0.92078415
    C     14.05456773     30.31598509     56.80159221      4.07909971
    H     15.19484151     29.11515932     58.15334146      0.92075496
    H     12.69500829     31.54658776     55.62992478      0.92095415
    H     14.81230519     30.30048289     56.02158017      0.92097561
   36
Geometry Step: 43
    C     10.43890182     29.08125736     63.25199120      3.94737830
    C      9.45122084     29.09334772     64.26935325      4.13837742
    C     11.67455472     28.35375118     63.48128833      3.94736270
    C     10.25570536     29.75371943     62.02852688      4.13774346
    C      9.64097827     28.42576396     65.48150027      3.94446193
    H      8.52433745     29.63914849     64.09778240      0.91902649
    C     11.85354460     27.67893857     64.71531532      4.13831625
    C     12.65903837     28.33862684     62.47468200      4.13774350
    C     11.24018949     29.73859449     61.02192011      3.94736298
    H      9.32890477     30.29958078     61.85651774      0.91863527
    C      8.64839120     28.43473421     66.51891412      4.10172728
    C     10.87334302     27.70031503     65.70998956      3.94453006
    H     12.78014528     27.13333178     64.88876265      0.91904956
    H     13.58583856     27.79276930     62.64669359      0.91863497
    C     12.47584373     29.01109151     61.25121941      3.94737799
    C     11.06119366     30.41339628     59.78788773      4.13831627
    C      8.86003675     27.77632804     67.70160458      4.07910647
    H      7.72006327     28.97741678     66.35000254      0.92075082
    C     11.04833384     27.02203925     66.96314997      4.10166581
    C     13.46352432     28.99900240     60.23385864      4.13837748
    C     12.04140174     30.39202862     58.79321968      3.94452999
    H     10.13458499     30.95899148     59.61443483      0.91904974
    C     10.07509967     27.06108183     67.92654395      4.07917588
    H      8.10223800     27.79185397     68.48153677      0.92096220
    H     11.97316252     26.47434333     67.13590554      0.92077921
    H     14.39040848     28.45320904     60.40543247      0.91902618
    C     13.27376821     29.66658567     59.02171202      3.94446172
    C     11.86641232     31.07030967     57.54006283      4.10166582
    H     10.21973758     26.54560519     68.87315264      0.92095113
    C     14.26635291     29.65761763     57.98429768      4.10172746
    C     12.83964692     31.03127123     56.57666998      4.07917607
    H     10.94158968     31.61801789     57.36731485      0.92077929
    C     14.05470967     30.31602704     56.80160925      4.07910651
    H     15.19468201     29.11494236     58.15321036      0.92075072
    H     12.69501089     31.54675190     55.63006466      0.92095097
    H     14.81250998     30.30050676     56.02167931      0.92096210
   36
Geometry Step: 44
    C     10.43900784     29.08124395     63.25193064      3.94735615
    C      9.45136344     29.09331403     64.26932184      4.13837047
    C     11.67458849     28.35374130     63.48124304      3.94736969
    C     10.25568423     29.75372975     62.02851992      4.13774050
    C      9.64111090     28.42580733     65.48153530      3.94446969
    H      8.52441080     29.63917058     64.09788497      0.91904629
    C     11.85356231     27.67895227     64.71530143      4.13832380
    C     12.65905937     28.33861607     62.47468836      4.13774085
    C     11.24015563     29.73860490     61.02196499      3.94736988
    H      9.32895264     30.29960092     61.85629397      0.91862256
    C      8.64843478     28.43474657     66.51889916      4.10172179
    C     10.87343124     27.70031201     65.71008484      3.94451805
    H     12.78028937     27.13342065     64.88857727      0.91906749
    H     13.58579158     27.79274872     62.64691753      0.91862239
    C     12.47573695     29.01110462     61.25127930      3.94735589
    C     11.06117673     30.41338329     59.78790170      4.13832360
    C      8.85994919     27.77624204     67.70156630      4.07911379
    H      7.72018621     28.97764820     66.35013285      0.92075573
    C     11.04835587     27.02201370     66.96328129      4.10167417
    C     13.46338079     28.99903486     60.23388941      4.13837080
    C     12.04131439     30.39203231     58.79312485      3.94451782
    H     10.13444233     30.95890334     59.61462146      0.91906756
    C     10.07497641     27.06097094     67.92653175      4.07917667
    H      8.10208416     27.79178731     68.48140049      0.92095354
    H     11.97326092     26.47447942     67.13632457      0.92077683
    H     14.39033514     28.45318709     60.40532999      0.91904606
    C     13.27363588     29.66654296     59.02167729      3.94446949
    C     11.86639048     31.07033425     57.53993166      4.10167412
    H     10.21964825     26.54543782     68.87302180      0.92094282
    C     14.26630893     29.65760642     57.98431278      4.10172211
    C     12.83977033     31.03138235     56.57668256      4.07917699
    H     10.94149162     31.61787967     57.36689428      0.92077691
    C     14.05479696     30.31611381     56.80164781      4.07911381
    H     15.19455792     29.11471160     58.15307976      0.92075568
    H     12.69510099     31.54691963     55.63019641      0.92094260
    H     14.81266257     30.30057231     56.02181572      0.92095338
   36
Geometry Step: 45
    C     10.43908957     29.08126258     63.25184408      3.94733593
    C      9.45155521     29.09333063     64.26932197      4.13836125
    C     11.67459189     28.35377834     63.48119034      3.94737298
    C     10.25567442     29.75374423     62.02847866      4.13773378
    C      9.64131408     28.42584334     65.48157716      3.94447721
    H      8.52452075     29.63925166     64.09800626      0.91907127
    C     11.85364903     27.67902808     64.71528351      4.13832756
    C     12.65906890     28.33860140     62.47472912      4.13773328
    C     11.24015124     29.73856793     61.02201726      3.94737302
    H      9.32900676     30.29961942     61.85600061      0.91861123
    C      8.64855055     28.43480958     66.51890048      4.10171583
    C     10.87359235     27.70030598     65.71017923      3.94450170
    H     12.78054434     27.13354442     64.88835422      0.91908989
    H     13.58573889     27.79272941     62.64721098      0.91861125
    C     12.47565393     29.01108586     61.25136486      3.94733578
    C     11.06109090     30.41330853     59.78792051      4.13832794
    C      8.85987382     27.77607539     67.70147873      4.07912213
    H      7.72037431     28.97800103     66.35029710      0.92076571
    C     11.04840554     27.02204248     66.96344220      4.10168299
    C     13.46318820     28.99901724     60.23388830      4.13836099
    C     12.04115305     30.39203952     58.79303107      3.94450127
    H     10.13419003     30.95878033     59.61484628      0.91908986
    C     10.07483068     27.06077642     67.92648119      4.07917527
    H      8.10189545     27.79163530     68.48116376      0.92094919
    H     11.97333063     26.47470804     67.13693093      0.92077330
    H     14.39022599     28.45310534     60.40520896      0.91907115
    C     13.27343219     29.66650812     59.02163531      3.94447707
    C     11.86634087     31.07030491     57.53977083      4.10168322
    H     10.21943490     26.54516072     68.87284935      0.92093319
    C     14.26619324     29.65754498     57.98431199      4.10171596
    C     12.83991618     31.03157741     56.57673358      4.07917543
    H     10.94142194     31.61764794     57.36628565      0.92077337
    C     14.05487198     30.31628116     56.80173560      4.07912236
    H     15.19436953     29.11435877     58.15291531      0.92076570
    H     12.69531515     31.54719765     55.63036957      0.92093297
    H     14.81284986     30.30072284     56.02205247      0.92094897
   36
Geometry Step: 46
    C     10.43913244     29.08133110     63.25178712      3.94732285
    C      9.45174652     29.09345541     64.26937898      4.13835165
    C     11.67458896     28.35387207     63.48117918      3.94737306
    C     10.25566570     29.75375825     62.02841731      4.13773182
    C      9.64155824     28.42591305     65.48163080      3.94448544
    H      8.52465011     29.63942161     64.09815485      0.91908703
    C     11.85384828     27.67918709     64.71529703      4.13833142
    C     12.65907728     28.33858759     62.47479020      4.13773150
    C     11.24015305     29.73847351     61.02202801      3.94737280
    H      9.32902921     30.29961210     61.85571305      0.91860319
    C      8.64875941     28.43491856     66.51893253      4.10170725
    C     10.87380871     27.70034629     65.71026112      3.94448762
    H     12.78089927     27.13373770     64.88814271      0.91909883
    H     13.58571731     27.79273604     62.64749852      0.91860348
    C     12.47560988     29.01101704     61.25142091      3.94732292
    C     11.06089263     30.41315069     59.78790833      4.13833164
    C      8.85979482     27.77584348     67.70136367      4.07912419
    H      7.72067666     28.97842725     66.35041236      0.92078397
    C     11.04843878     27.02215965     66.96359114      4.10168669
    C     13.46299631     28.99889183     60.23383027      4.13835163
    C     12.04093611     30.39200059     58.79294952      3.94448711
    H     10.13383815     30.95858783     59.61505978      0.91909862
    C     10.07465817     27.06050368     67.92641405      4.07917095
    H      8.10163275     27.79139257     68.48085074      0.92094968
    H     11.97335536     26.47503850     67.13753441      0.92077893
    H     14.39009740     28.45293451     60.40506057      0.91908708
    C     13.27318725     29.66643950     59.02158137      3.94448531
    C     11.86630744     31.07018797     57.53962193      4.10168688
    H     10.21914649     26.54471995     68.87267373      0.92092566
    C     14.26598500     29.65743755     57.98428069      4.10170744
    C     12.84008872     31.03185088     56.57680104      4.07917113
    H     10.94139650     31.61731424     57.36567924      0.92077892
    C     14.05495052     30.31651327     56.80185097      4.07912437
    H     15.19406771     29.11393193     58.15280007      0.92078401
    H     12.69560413     31.54763985     55.63054551      0.92092546
    H     14.81311135     30.30096401     56.02236540      0.92094950
   36
Geometry Step: 47
    C     10.43917683     29.08150547     63.25182438      3.94731883
    C      9.45204714     29.09382375     64.26962085      4.13833989
    C     11.67465221     28.35410547     63.48123460      3.94738127
    C     10.25563466     29.75373205     62.02835850      4.13773007
    C      9.64190233     28.42612575     65.48177293      3.94448893
    H      8.52494397     29.63979858     64.09841671      0.91909382
    C     11.85423808     27.67962056     64.71541507      4.13833056
    C     12.65910818     28.33861383     62.47484954      4.13772920
    C     11.24008846     29.73823831     61.02197253      3.94738090
    H      9.32901018     30.29954262     61.85534454      0.91860346
    C      8.64906019     28.43519887     66.51901783      4.10170248
    C     10.87415555     27.70053359     65.71036439      3.94447311
    H     12.78143835     27.13423855     64.88795327      0.91909653
    H     13.58573715     27.79280502     62.64786663      0.91860389
    C     12.47556461     29.01084143     61.25138326      3.94731907
    C     11.06050380     30.41271967     59.78779257      4.13833123
    C      8.85961780     27.77545900     67.70115642      4.07912458
    H      7.72113264     28.97908543     66.35048168      0.92079898
    C     11.04854992     27.02241117     66.96376235      4.10169601
    C     13.46269564     28.99852308     60.23358795      4.13833945
    C     12.04058816     30.39181449     58.79284676      3.94447256
    H     10.13330144     30.95808845     59.61525089      0.91909615
    C     10.07440187     27.06003248     67.92624487      4.07916138
    H      8.10112521     27.79094192     68.48032307      0.92095014
    H     11.97342425     26.47549441     67.13820110      0.92078414
    H     14.38980470     28.45255636     60.40479879      0.91909401
    C     13.27284233     29.66622730     59.02143888      3.94448883
    C     11.86619582     31.06993730     57.53945055      4.10169640
    H     10.21872219     26.54384846     68.87235224      0.92092616
    C     14.26568556     29.65715922     57.98419655      4.10170242
    C     12.84034511     31.03232340     56.57697038      4.07916144
    H     10.94132582     31.61685471     57.36500778      0.92078407
    C     14.05512748     30.31689773     56.80205810      4.07912490
    H     15.19361281     29.11327245     58.15273077      0.92079908
    H     12.69602892     31.54851360     55.63086682      0.92092605
    H     14.81361814     30.30141256     56.02289198      0.92095001
   36
Geometry Step: 48
    C     10.43908368     29.08151634     63.25189782      3.94733386
    C      9.45198248     29.09392134     64.26972372      4.13834238
    C     11.67464267     28.35412823     63.48125979      3.94738178
    C     10.25564001     29.75371256     62.02838134      4.13773166
    C      9.64186999     28.42608644     65.48177354      3.94448416
    H      8.52491116     29.63982323     64.09843604      0.91907548
    C     11.85433559     27.67968631     64.71544168      4.13832420
    C     12.65910294     28.33863359     62.47482766      4.13773161
    C     11.24009761     29.73821406     61.02194774      3.94738140
    H      9.32897961     30.29951340     61.85543432      0.91861393
    C      8.64912451     28.43527776     66.51907893      4.10170916
    C     10.87416067     27.70052078     65.71029447      3.94448028
    H     12.78145164     27.13422338     64.88800771      0.91907948
    H     13.58576701     27.79283449     62.64777641      0.91861432
    C     12.47565818     29.01083003     61.25131057      3.94733419
    C     11.06040607     30.41265453     59.78776677      4.13832422
    C      8.85961582     27.77540920     67.70114617      4.07912293
    H      7.72121613     28.97910579     66.35039391      0.92079618
    C     11.04856875     27.02252837     66.96375180      4.10169216
    C     13.46276125     28.99842655     60.23348589      4.13834249
    C     12.04058211     30.39182697     58.79291636      3.94447993
    H     10.13328730     30.95810431     59.61519606      0.91907916
    C     10.07441887     27.05997637     67.92624414      4.07916037
    H      8.10108244     27.79090636     68.48027811      0.92095285
    H     11.97337131     26.47555737     67.13814933      0.92078880
    H     14.38983767     28.45253104     60.40477909      0.91907569
    C     13.27287436     29.66626578     59.02143807      3.94448409
    C     11.86617654     31.06982147     57.53946078      4.10169229
    H     10.21866978     26.54375710     68.87242162      0.92093022
    C     14.26562244     29.65708009     57.98413564      4.10170925
    C     12.84032812     31.03237995     56.57697072      4.07916050
    H     10.94137701     31.61679226     57.36505881      0.92078870
    C     14.05512985     30.31694676     56.80206799      4.07912303
    H     15.19353086     29.11325093     58.15281899      0.92079628
    H     12.69608076     31.54860550     55.63079644      0.92093017
    H     14.81366204     30.30144831     56.02293633      0.92095281
   36
Geometry Step: 49
    C     10.43898417     29.08154133     63.25200603      3.94735281
    C      9.45188487     29.09403928     64.26984155      4.13834641
    C     11.67465435     28.35415868     63.48131426      3.94738608
    C     10.25564367     29.75367870     62.02841726      4.13773460
    C      9.64183343     28.42607841     65.48177326      3.94447947
    H      8.52486226     29.63985767     64.09849519      0.91904863
    C     11.85444074     27.67974907     64.71549219      4.13831443
    C     12.65909943     28.33866742     62.47479268      4.13773439
    C     11.24008614     29.73818223     61.02189388      3.94738592
    H      9.32893265     30.29946259     61.85558704      0.91862802
    C      8.64920068     28.43536233     66.51913564      4.10171916
    C     10.87417357     27.70054958     65.71023605      3.94449121
    H     12.78145445     27.13422165     64.88809307      0.91905679
    H     13.58581271     27.79288578     62.64762326      0.91862820
    C     12.47575846     29.01080418     61.25120330      3.94735298
    C     11.06030069     30.41259195     59.78771662      4.13831453
    C      8.85958819     27.77536556     67.70113110      4.07911894
    H      7.72136939     28.97912996     66.35027893      0.92078920
    C     11.04857943     27.02264479     66.96373866      4.10169022
    C     13.46285995     28.99830979     60.23336921      4.13834634
    C     12.04056874     30.39179763     58.79297428      3.94449109
    H     10.13328285     30.95810733     59.61511030      0.91905674
    C     10.07442106     27.05992366     67.92624725      4.07915698
    H      8.10099850     27.79084711     68.48022773      0.92095496
    H     11.97334846     26.47564486     67.13804079      0.92079411
    H     14.38988609     28.45249621     60.40471928      0.91904871
    C     13.27291115     29.66627287     59.02143831      3.94447944
    C     11.86616545     31.06970655     57.53947338      4.10169035
    H     10.21861260     26.54362092     68.87249189      0.92093795
    C     14.26554736     29.65699471     57.98407895      4.10171910
    C     12.84032598     31.03243296     56.57696714      4.07915697
    H     10.94139758     31.61670562     57.36516702      0.92079405
    C     14.05515808     30.31698971     56.80208274      4.07911901
    H     15.19337895     29.11322574     58.15293451      0.92078922
    H     12.69613722     31.54874209     55.63072522      0.92093797
    H     14.81374735     30.30150787     56.02298609      0.92095500
   36
Geometry Step: 50
    C     10.43899177     29.08154596     63.25202773      3.94735355
    C      9.45186822     29.09404188     64.26983887      4.13834795
    C     11.67467538     28.35415851     63.48133125      3.94738773
    C     10.25564107     29.75366672     62.02842620      4.13773679
    C      9.64183159     28.42610530     65.48177524      3.94448166
    H      8.52486015     29.63985441     64.09852366      0.91904229
    C     11.85443659     27.67973728     64.71550120      4.13831464
    C     12.65910207     28.33867900     62.47478366      4.13773701
    C     11.24006580     29.73818261     61.02187700      3.94738765
    H      9.32893162     30.29944694     61.85562363      0.91862841
    C      8.64920383     28.43536163     66.51912563      4.10171623
    C     10.87418350     27.70057862     65.71025517      3.94449562
    H     12.78143062     27.13423268     64.88810724      0.91905245
    H     13.58581323     27.79290169     62.64758664      0.91862849
    C     12.47575124     29.01079918     61.25118182      3.94735364
    C     11.06030471     30.41260347     59.78770714      4.13831444
    C      8.85956586     27.77537505     67.70111742      4.07911737
    H      7.72141213     28.97914396     66.35027611      0.92078821
    C     11.04858073     27.02262965     66.96374629      4.10168974
    C     13.46287666     28.99830724     60.23337216      4.13834819
    C     12.04055943     30.39176837     58.79295497      3.94449555
    H     10.13330599     30.95809699     59.61509618      0.91905244
    C     10.07440676     27.05993337     67.92624226      4.07915362
    H      8.10097682     27.79082247     68.48022713      0.92095488
    H     11.97339761     26.47565086     67.13803413      0.92079578
    H     14.38988757     28.45249978     60.40469055      0.91904232
    C     13.27291357     29.66624584     59.02143668      3.94448161
    C     11.86616417     31.06972165     57.53946565      4.10168974
    H     10.21859257     26.54360017     68.87248852      0.92094289
    C     14.26554401     29.65699498     57.98408873      4.10171631
    C     12.84034042     31.03242314     56.57697206      4.07915372
    H     10.94134802     31.61669978     57.36517406      0.92079571
    C     14.05518065     30.31698037     56.80209656      4.07911731
    H     15.19333584     29.11321201     58.15293734      0.92078822
    H     12.69615721     31.54876267     55.63072868      0.92094290
    H     14.81376916     30.30153258     56.02298662      0.92095493
