   36
 Eigenmode          89   3349.7263395735081      cm-1
    C     10.43899177     29.08154596     63.25202773    157.17779919    -56.14596534    -40.17774929
    C      9.45186822     29.09404188     64.26983887     56.40940711    164.97695537   -346.61413969
    C     11.67467538     28.35415851     63.48133125     19.38700855     47.76960365   -100.14442087
    C     10.25564107     29.75366672     62.02842620     41.39492192     49.76175188   -114.93705231
    C      9.64183159     28.42610530     65.48177524   -154.53841289    104.31941005   -101.12067504
    H      8.52486015     29.63985441     64.09852366  -6547.35844325  -4968.40822653  19568.95761617
    C     11.85443659     27.67973728     64.71550120     -9.55642252     37.73526175    -77.91621805
    C     12.65910207     28.33867900     62.47478366     14.03975629     29.75547599    -54.10450368
    C     11.24006580     29.73818261     61.02187700     86.26594802     20.49532892    -76.79976507
    H      9.32893162     30.29944694     61.85562363   -140.36198577   -124.01214506    250.62482568
    C      8.64920383     28.43536163     66.51912563    -48.41116929     38.76917724    -99.66138738
    C     10.87418350     27.70057862     65.71025517      5.79381587     36.62025095   -111.17527418
    H     12.78143062     27.13423268     64.88810724     -2.95894628     -2.36733313     49.39931192
    H     13.58581323     27.79290169     62.64758664    262.65794942   -167.73846628    -33.66806845
    C     12.47575124     29.01079918     61.25118182     67.14613323     34.33210553    -62.50648169
    C     11.06030471     30.41260347     59.78770714     58.03432607     95.67771991   -100.94350091
    C      8.85956585     27.77537505     67.70111742    -62.09278987     45.19898291   -133.74632879
    H      7.72141213     28.97914396     66.35027611    -98.22959149    118.04713680   -291.31747184
    C     11.04858073     27.02262965     66.96374629    -46.13678121     36.87352555    -77.99828763
    C     13.46287666     28.99830724     60.23337216     47.48343645     15.56322052    -30.06617601
    C     12.04055943     30.39176837     58.79295497    134.04242218     46.43953886   -126.96544163
    H     10.13330599     30.95809699     59.61509618      9.37865998    -17.13813743     21.79358903
    C     10.07440676     27.05993337     67.92624226    -66.16902106     47.60084629   -123.20989173
    H      8.10097682     27.79082247     68.48022713    -98.38430729    193.17216305   -350.77003967
    H     11.97339761     26.47565086     67.13803413   -140.93948486    105.14272021   -105.82117138
    H     14.38988757     28.45249978     60.40469055    -62.62553728   -183.91461059   -179.27114220
    C     13.27291357     29.66624584     59.02143668    121.78344305     18.35149909    -56.87793229
    C     11.86616417     31.06972165     57.53946565    147.67038501   -389.81948640    601.52448980
    H     10.21859257     26.54360017     68.87248852     -7.99177604   -134.33598106    187.12088691
    C     14.26554401     29.65699498     57.98408873    157.70385913     53.58599491    -23.12442406
    C     12.84034042     31.03242314     56.57697206    -90.99580782   -192.95051488    -61.76522914
    H     10.94134802     31.61669978     57.36517406    -18.03245050      4.76545915     39.13539080
    C     14.05518065     30.31698037     56.80209656    215.25496381    -22.28401745    -15.38796416
    H     15.19333584     29.11321201     58.15293734    179.77690308     70.64668201    -66.28357835
    H     12.69615721     31.54876267     55.63072868     -1.21973058      7.46910643     10.77898057
    H     14.81376916     30.30153258     56.02298662  -3481.29412278   1969.55828903  -3209.84834597
   36
 Eigenmode          90   3397.7547313051687      cm-1
    C     10.43899177     29.08154596     63.25202773    -50.34247900    104.21146477   -210.67817085
    C      9.45186822     29.09404188     64.26983887    -75.39401247     50.96582205   -162.01844617
    C     11.67467538     28.35415851     63.48133125     10.68859222    132.57992879   -183.26808916
    C     10.25564107     29.75366672     62.02842620    -73.68049942    135.93062749   -313.59056192
    C      9.64183159     28.42610530     65.48177524     46.99524040     30.10867771   -212.50145748
    H      8.52486015     29.63985441     64.09852366   2458.31144311   1795.78925471  -7170.62986985
    C     11.85443659     27.67973728     64.71550120     -8.50788328    156.49656213   -223.35370757
    C     12.65910207     28.33867900     62.47478366     24.43969315    160.38531950   -216.56354927
    C     11.24006580     29.73818261     61.02187700    -25.20725166     73.62594591   -126.71681535
    H      9.32893162     30.29944694     61.85562363     23.15206081    -55.64572017    127.96516599
    C      8.64920383     28.43536163     66.51912563     -5.10016650     21.59887056   -235.42140289
    C     10.87418350     27.70057862     65.71025517     15.85818373    108.90610529   -195.03373340
    H     12.78143062     27.13423268     64.88810724     40.15078345    -75.61239066    619.59031397
    H     13.58581323     27.79290169     62.64758664   -397.98346094    522.71738258   -278.46898625
    C     12.47575124     29.01079918     61.25118182      3.46910614    164.54392080   -180.24084316
    C     11.06030471     30.41260347     59.78770714    -48.08328791    251.29337637   -515.34102222
    C      8.85956585     27.77537505     67.70111742    -14.40193963     43.96200678   -215.65981926
    H      7.72141213     28.97914396     66.35027611   -185.41717038     66.37867060   -231.98742544
    C     11.04858073     27.02262965     66.96374629     37.56643220    120.56513012   -206.62165186
    C     13.46287666     28.99830724     60.23337216    -94.40564792    276.05784193   -275.15384073
    C     12.04055943     30.39176837     58.79295497    -83.85086493    332.69461760   -575.24704573
    H     10.13330599     30.95809699     59.61509618     46.33297768      3.33179123     18.22404519
    C     10.07440676     27.05993337     67.92624226      9.21811198     99.21634252   -238.43641326
    H      8.10097682     27.79082247     68.48022713   -123.14515073    127.53231608   -307.66913422
    H     11.97339761     26.47565086     67.13803413     14.66142436    170.36138131   -197.39800662
    H     14.38988757     28.45249978     60.40469055   -314.84341591   -928.87925648   -828.06808065
    C     13.27291357     29.66624584     59.02143668      1.36379995    147.49227174   -140.76117694
    C     11.86616417     31.06972165     57.53946565   1014.66348419  -2908.43405887   6138.84707922
    H     10.21859257     26.54360017     68.87248852     54.50715734   -149.39509495    237.38859381
    C     14.26554401     29.65699498     57.98408873    -86.07873160    323.49737568   -441.77793728
    C     12.84034042     31.03242314     56.57697206    212.69600470   -666.90002662    482.11825202
    H     10.94134802     31.61669978     57.36517406    -34.76173506    138.90111051    263.57991858
    C     14.05518065     30.31698037     56.80209656    120.60016039     64.25951176    -74.75566958
    H     15.19333584     29.11321201     58.15293734    238.03801038    313.71907420   -373.43178679
    H     12.69615721     31.54876267     55.63072868     34.13830087      4.89032947     82.83899111
    H     14.81376916     30.30153258     56.02298662 -12963.65471442   7322.93279418 -11952.67378436
   36
 Eigenmode          91   3464.3281232941640      cm-1
    C     10.43899177     29.08154596     63.25202773     20.74040537     26.58633771     -6.54472005
    C      9.45186822     29.09404188     64.26983887    119.64296966    108.77351893     38.28202620
    C     11.67467538     28.35415851     63.48133125    -71.73010902   -141.68631524    -82.40330509
    C     10.25564107     29.75366672     62.02842620     77.43556368     97.96970063     39.69857913
    C      9.64183159     28.42610530     65.48177524     40.68154482     68.03156376      9.10722326
    H      8.52486015     29.63985441     64.09852366   -322.69810279    115.22703343   -177.53951066
    C     11.85443659     27.67973728     64.71550120    -44.75544134   -215.40380530   -140.46717238
    C     12.65910207     28.33867900     62.47478366   -116.52028309   -236.16037626   -152.08751403
    C     11.24006580     29.73818261     61.02187700     21.34463070      9.99773820    -24.08961326
    H      9.32893162     30.29944694     61.85562363   -280.65216127   -110.05743727    -37.27758943
    C      8.64920383     28.43536163     66.51912563     88.17059335    167.77571464     59.25051320
    C     10.87418350     27.70057862     65.71025517    -38.98264494   -112.15293766    -60.67348736
    H     12.78143062     27.13423268     64.88810724   -262.44251937    636.86373124   1250.97849395
    H     13.58581323     27.79290169     62.64758664    365.37240602   -579.12696570   -120.35031970
    C     12.47575124     29.01079918     61.25118182    -49.83074638   -205.64079062    -71.48397688
    C     11.06030471     30.41260347     59.78770714     39.76613857     68.89128500     11.52902781
    C      8.85956585     27.77537505     67.70111742     53.61463490    104.75807589     40.11485899
    H      7.72141213     28.97914396     66.35027611    272.35064145    270.26372754    122.04747963
    C     11.04858073     27.02262965     66.96374629    -80.51490613   -164.68015507    -97.31083606
    C     13.46287666     28.99830724     60.23337216    -52.21349672   -375.16100535   -337.02116868
    C     12.04055943     30.39176837     58.79295497     14.50221517    -29.22594951    -33.59457983
    H     10.13330599     30.95809699     59.61509618    -10.04516119    -48.59178953    -24.83082580
    C     10.07440676     27.05993337     67.92624226    -24.26433439    -67.45177795    -55.13336952
    H      8.10097682     27.79082247     68.48022713    346.44545975    356.78526234    -86.60802741
    H     11.97339761     26.47565086     67.13803413    -36.75719437   -329.72715148   -148.37805188
    H     14.38988757     28.45249978     60.40469055   5885.96061581  15347.53425308  14137.36343888
    C     13.27291357     29.66624584     59.02143668   -119.19584995   -183.64407689   -106.69597145
    C     11.86616417     31.06972165     57.53946565     -5.37875394     16.72032346    -78.59249940
    H     10.21859257     26.54360017     68.87248852    -25.58397649   -231.74726263    -47.81253941
    C     14.26554401     29.65699498     57.98408873   -384.53752776   -281.16200974    -95.37192388
    C     12.84034042     31.03242314     56.57697206    186.45564070    242.27240120     68.98113776
    H     10.94134802     31.61669978     57.36517406    -20.04068697    -15.10604751     -2.30727065
    C     14.05518065     30.31698037     56.80209656   -123.77055088   -228.30275368    -79.99896914
    H     15.19333584     29.11321201     58.15293734    455.92336981   -371.42614997    278.40818330
    H     12.69615721     31.54876267     55.63072868     -0.02543285      0.49948718      1.57522908
    H     14.81376916     30.30153258     56.02298662  -1014.06013998    791.97486401  -1389.69929969
   36
 Eigenmode          92   3705.1754811993765      cm-1
    C     10.43899177     29.08154596     63.25202773     -2.23374560    -28.04579158     25.01366424
    C      9.45186822     29.09404188     64.26983887      3.24912091    -39.15585703     32.57687869
    C     11.67467538     28.35415851     63.48133125     14.38775972    -10.01874322     20.88630221
    C     10.25564107     29.75366672     62.02842620    -19.90282217    -47.91557421     29.91943045
    C      9.64183159     28.42610530     65.48177524     11.29098269    -22.35636509     33.15786192
    H      8.52486015     29.63985441     64.09852366   -174.44086774    -66.52405410    268.67886878
    C     11.85443659     27.67973728     64.71550120     20.79379722     -5.58398672     45.71669191
    C     12.65910207     28.33867900     62.47478366      5.82970364     -5.09129670     25.24507563
    C     11.24006580     29.73818261     61.02187700    -23.53121980    -26.41267679     16.22776762
    H      9.32893162     30.29944694     61.85562363     69.11639406     65.18203837    -80.63652152
    C      8.64920383     28.43536163     66.51912563     20.73151720    -21.99507458     16.16380386
    C     10.87418350     27.70057862     65.71025517      7.80421069      6.60227179     21.97385159
    H     12.78143062     27.13423268     64.88810724    186.19999404   -664.73849406  -1763.77152977
    H     13.58581323     27.79290169     62.64758664    -66.36015928     50.28537667     15.70830369
    C     12.47575124     29.01079918     61.25118182    -14.54156780     -8.06811299     14.32214076
    C     11.06030471     30.41260347     59.78770714    -37.66727299    -64.09306025     14.93947762
    C      8.85956585     27.77537505     67.70111742    -43.73170224    -40.08583260    157.02810080
    H      7.72141213     28.97914396     66.35027611    117.76107753   -138.38221194    225.79097634
    C     11.04858073     27.02262965     66.96374629    138.83571026    -69.49483609     77.61376451
    C     13.46287666     28.99830724     60.23337216    -13.11175483      0.11980410     12.44927313
    C     12.04055943     30.39176837     58.79295497    -46.59038270    -23.81344514      5.66271483
    H     10.13330599     30.95809699     59.61509618     -5.16661460     29.91499284     -4.07306196
    C     10.07440676     27.05993337     67.92624226    348.89382616   -493.83862016    953.86870560
    H      8.10097682     27.79082247     68.48022713    164.55127203    339.74228393   -289.85189359
    H     11.97339761     26.47565086     67.13803413   -549.78558083    345.19443267   -129.50972197
    H     14.38988757     28.45249978     60.40469055     40.11401641     49.02360435     91.32679581
    C     13.27291357     29.66624584     59.02143668    -39.43803920     -7.52592973      9.13210053
    C     11.86616417     31.06972165     57.53946565     -5.19631242   -197.32827049     64.39532990
    H     10.21859257     26.54360017     68.87248852  -4550.19659391  10465.61610659 -18489.13632350
    C     14.26554401     29.65699498     57.98408873    -88.57933405      2.68630582    -14.99096916
    C     12.84034042     31.03242314     56.57697206    189.38376122    235.74817515    117.09598294
    H     10.94134802     31.61669978     57.36517406      9.85536308     17.61049995      3.35029699
    C     14.05518065     30.31698037     56.80209656    -73.17302979    -10.18120158      9.19514452
    H     15.19333584     29.11321201     58.15293734    579.87622238   -201.31213582    261.52269610
    H     12.69615721     31.54876267     55.63072868     -0.29626898     -4.42730204     -0.60753576
    H     14.81376916     30.30153258     56.02298662    -33.10673171    148.26714246   -215.92732171
   36
 Eigenmode          93   3726.5497649424055      cm-1
    C     10.43899177     29.08154596     63.25202773    -76.84604248    -47.34189446     52.53491091
    C      9.45186822     29.09404188     64.26983887    -95.19863494    -50.84692026     23.06017118
    C     11.67467538     28.35415851     63.48133125     81.85766713     30.94606112     86.06426368
    C     10.25564107     29.75366672     62.02842620   -107.22117945   -142.65740657    -16.86211493
    C      9.64183159     28.42610530     65.48177524    -41.69644778      3.44466740     85.47014312
    H      8.52486015     29.63985441     64.09852366    319.64389324    -88.27282904    251.07442576
    C     11.85443659     27.67973728     64.71550120    -79.35699214    157.08541339    288.63406233
    C     12.65910207     28.33867900     62.47478366    -36.91912244    105.51910604     99.98073687
    C     11.24006580     29.73818261     61.02187700    -96.28967043    -89.32776165     19.43107397
    H      9.32893162     30.29944694     61.85562363    356.46394168    187.16739966    -49.05447423
    C      8.64920383     28.43536163     66.51912563    -46.62385927      9.73836108     54.78791553
    C     10.87418350     27.70057862     65.71025517    -65.69968647    193.39794128     80.62088877
    H     12.78143062     27.13423268     64.88810724   1938.52527097  -5954.68762771 -20600.06779248
    H     13.58581323     27.79290169     62.64758664    145.61055848     13.54519353    238.09573484
    C     12.47575124     29.01079918     61.25118182    -32.31047634      8.89821372     70.42142204
    C     11.06030471     30.41260347     59.78770714   -157.61250423   -261.72214400    -49.27221363
    C      8.85956585     27.77537505     67.70111742     21.63497268     83.30561800     78.57730930
    H      7.72141213     28.97914396     66.35027611   -127.73263839    -82.20709016    -18.24377100
    C     11.04858073     27.02262965     66.96374629     72.43388274    230.18235802    145.65634027
    C     13.46287666     28.99830724     60.23337216     -8.75640223     46.97173920     82.53276100
    C     12.04055943     30.39176837     58.79295497   -132.12208183   -134.23725825     -9.79353389
    H     10.13330599     30.95809699     59.61509618     21.10760122    129.29196219     51.10090748
    C     10.07440676     27.05993337     67.92624226     -2.36305668    247.76472407     67.75474052
    H      8.10097682     27.79082247     68.48022713     42.21060555      9.05101939     90.57497602
    H     11.97339761     26.47565086     67.13803413      7.30965138    296.31291179    227.83332902
    H     14.38988757     28.45249978     60.40469055    342.11228363    923.60957031    856.60858881
    C     13.27291357     29.66624584     59.02143668    -66.67091895    -47.00343142     47.24267073
    C     11.86616417     31.06972165     57.53946565    -60.56633211  -1080.78545525   -224.75269547
    H     10.21859257     26.54360017     68.87248852    538.93667324   -666.27367966   2128.07856871
    C     14.26554401     29.65699498     57.98408873     18.52333267    -94.40598769     88.52708934
    C     12.84034042     31.03242314     56.57697206    826.11023819   1310.33548315    376.84907167
    H     10.94134802     31.61669978     57.36517406     62.66494276     58.36530385     31.22047634
    C     14.05518065     30.31698037     56.80209656   -108.04502270   -108.80396028     36.78751357
    H     15.19333584     29.11321201     58.15293734  -1507.55692335    506.68509112   -517.74000926
    H     12.69615721     31.54876267     55.63072868     -4.74429934      2.53835268     -1.78705004
    H     14.81376916     30.30153258     56.02298662    173.77922046    250.99131270   -372.09157630
   36
 Eigenmode          94   3757.1452085160631      cm-1
    C     10.43899177     29.08154596     63.25202773   -225.83590062   -231.19891301    -49.03492061
    C      9.45186822     29.09404188     64.26983887   -188.72758607   -183.96228648     57.66176744
    C     11.67467538     28.35415851     63.48133125   -185.64697674    -50.11706245    -49.11621597
    C     10.25564107     29.75366672     62.02842620   -503.41398078   -582.80615451   -193.19964476
    C      9.64183159     28.42610530     65.48177524     69.11423038     43.83535362    137.57168055
    H      8.52486015     29.63985441     64.09852366    647.44396563   -357.14080116   1182.36136761
    C     11.85443659     27.67973728     64.71550120     81.23118866    151.03625179    -41.10496129
    C     12.65910207     28.33867900     62.47478366   -197.39312486   -113.43392019   -160.60689501
    C     11.24006580     29.73818261     61.02187700   -559.01371964   -501.60428610   -222.86776907
    H      9.32893162     30.29944694     61.85562363   1215.83189295    600.14165069    -79.78898056
    C      8.64920383     28.43536163     66.51912563    179.54426477     82.14957883    261.62162256
    C     10.87418350     27.70057862     65.71025517    234.75464156    158.75755059    150.80382733
    H     12.78143062     27.13423268     64.88810724   -878.28148101   3095.07294261  12560.92953624
    H     13.58581323     27.79290169     62.64758664    -63.33411427     29.75275259   -198.45761936
    C     12.47575124     29.01079918     61.25118182   -470.16247016   -351.73460456   -222.21609578
    C     11.06030471     30.41260347     59.78770714   -922.75850705  -1104.47280832   -512.38781390
    C      8.85956585     27.77537505     67.70111742    399.26419543    308.96699637    335.74792798
    H      7.72141213     28.97914396     66.35027611    183.58261087    -72.39992071    281.53374601
    C     11.04858073     27.02262965     66.96374629    363.43744886    411.16608497    231.73037327
    C     13.46287666     28.99830724     60.23337216   -428.57780685   -395.47567826   -555.10702555
    C     12.04055943     30.39176837     58.79295497   -909.29097976   -745.04509616   -312.93460116
    H     10.13330599     30.95809699     59.61509618    118.05265524    478.58023545    228.93530175
    C     10.07440676     27.05993337     67.92624226    414.58958576    493.18943602    284.94994133
    H      8.10097682     27.79082247     68.48022713    911.07593426    450.20052410    482.97521585
    H     11.97339761     26.47565086     67.13803413    406.29907604    535.51657697    218.93498975
    H     14.38988757     28.45249978     60.40469055  -1262.17813225  -2891.46185444  -3070.51818773
    C     13.27291357     29.66624584     59.02143668   -757.48790089   -581.92149306   -348.11282297
    C     11.86616417     31.06972165     57.53946565   -660.08278208  -4137.60235005  -2730.08741530
    H     10.21859257     26.54360017     68.87248852    798.31344181    114.29645368   2252.93592838
    C     14.26554401     29.65699498     57.98408873  -1865.40537474   -326.29109797   -769.63040259
    C     12.84034042     31.03242314     56.57697206   6740.68789565   8261.00792287   3929.35303130
    H     10.94134802     31.61669978     57.36517406    342.31267931    214.04787056    111.62168509
    C     14.05518065     30.31698037     56.80209656  -1378.64697541   -700.40964297   -331.21653599
    H     15.19333584     29.11321201     58.15293734   7990.43900300  -3237.58366053   3346.55668323
    H     12.69615721     31.54876267     55.63072868     22.96347862    -40.87181765     54.02058379
    H     14.81376916     30.30153258     56.02298662  -1260.35253661   2225.25608232  -4168.39222649
   36
 Eigenmode          95   3773.4750035257061      cm-1
    C     10.43899177     29.08154596     63.25202773     -7.65218566    -40.32624557     -3.33805203
    C      9.45186822     29.09404188     64.26983887    -30.22588474    -34.95100399    -12.85862364
    C     11.67467538     28.35415851     63.48133125    -14.91128031      5.47427997     13.30977229
    C     10.25564107     29.75366672     62.02842620    -48.20608451    -70.75159551    -33.32035332
    C      9.64183159     28.42610530     65.48177524      2.67120902    -16.28564132      6.69390773
    H      8.52486015     29.63985441     64.09852366    105.18735941    -22.11151132     55.15105604
    C     11.85443659     27.67973728     64.71550120     25.40909485     28.66699062     -0.85771926
    C     12.65910207     28.33867900     62.47478366     28.27663145     -7.23536291      7.14584459
    C     11.24006580     29.73818261     61.02187700    -23.96325334    -64.39758071    -10.68224337
    H      9.32893162     30.29944694     61.85562363    125.03527995     60.40118727     16.88727408
    C      8.64920383     28.43536163     66.51912563     -4.74699181    -17.48294932     -1.40111477
    C     10.87418350     27.70057862     65.71025517     22.44352371     14.94435565     26.20666401
    H     12.78143062     27.13423268     64.88810724   -191.67104547    588.96259751   2935.94935565
    H     13.58581323     27.79290169     62.64758664   -223.35780406    170.05125444    -26.53922139
    C     12.47575124     29.01079918     61.25118182    -18.97801596    -21.44838756      1.98078577
    C     11.06030471     30.41260347     59.78770714    -80.16795858   -115.99736624    -40.62227916
    C      8.85956585     27.77537505     67.70111742     11.90314082      5.16512994     21.41255000
    H      7.72141213     28.97914396     66.35027611     -6.02411582    -51.11019379     11.54801368
    C     11.04858073     27.02262965     66.96374629     36.87702067     44.06232505     34.16386644
    C     13.46287666     28.99830724     60.23337216     17.78509149    -29.47980913    -10.49902605
    C     12.04055943     30.39176837     58.79295497    -37.36396804    -83.84957915    -30.54853999
    H     10.13330599     30.95809699     59.61509618      5.80169603     68.34540130     33.52292761
    C     10.07440676     27.05993337     67.92624226     36.20418592     29.50123489     62.60953922
    H      8.10097682     27.79082247     68.48022713     35.68367963     44.57308941    -12.19804510
    H     11.97339761     26.47565086     67.13803413    -28.63799349    112.46839040     26.48435975
    H     14.38988757     28.45249978     60.40469055    326.08561454   -372.87817786    750.34772600
    C     13.27291357     29.66624584     59.02143668     34.70564759    -72.42770034    -10.44666735
    C     11.86616417     31.06972165     57.53946565    -59.17955752   -392.31703176   -289.58020941
    H     10.21859257     26.54360017     68.87248852   -131.88286628    434.64595513   -517.87594216
    C     14.26554401     29.65699498     57.98408873   1019.14562856   -553.19275269    450.53884125
    C     12.84034042     31.03242314     56.57697206    606.88819399    777.89416715    360.28621681
    H     10.94134802     31.61669978     57.36517406     16.79682812     27.06839414      6.71331108
    C     14.05518065     30.31698037     56.80209656     32.25757365   -110.27211567    -78.28463590
    H     15.19333584     29.11321201     58.15293734 -19070.04565306   6489.51756609  -7498.44601850
    H     12.69615721     31.54876267     55.63072868    -20.60290315     -2.63468204     -5.16145582
    H     14.81376916     30.30153258     56.02298662    599.74218882   1087.35026273  -1279.87676482
   36
 Eigenmode          96   4024.0967233077308      cm-1
    C     10.43899177     29.08154596     63.25202773    217.57357203   -182.07536765    243.21155866
    C      9.45186822     29.09404188     64.26983887    352.90495079    -75.81515732    209.82254945
    C     11.67467538     28.35415851     63.48133125     46.83498954   -339.57115422    401.72789924
    C     10.25564107     29.75366672     62.02842620    373.96034924   -201.02935163    291.25025352
    C      9.64183159     28.42610530     65.48177524   -117.89086971     94.84194137    190.22505725
    H      8.52486015     29.63985441     64.09852366  -6775.89415712    262.29577324  -2478.23212852
    C     11.85443659     27.67973728     64.71550120    -38.56327974   -314.86258883    488.05445216
    C     12.65910207     28.33867900     62.47478366    217.28832259   -580.24562226    540.69296617
    C     11.24006580     29.73818261     61.02187700    561.22965351   -439.29139411    255.46506194
    H      9.32893162     30.29944694     61.85562363   -668.58899323   -371.78128599     36.40713840
    C      8.64920383     28.43536163     66.51912563   -233.00486570    314.65934762     90.15024964
    C     10.87418350     27.70057862     65.71025517   -274.27830304    -88.14203277    382.45563346
    H     12.78143062     27.13423268     64.88810724  -1115.43247164   2769.85063920   2628.77514376
    H     13.58581323     27.79290169     62.64758664     98.79691953   -720.96941820    741.83914645
    C     12.47575124     29.01079918     61.25118182    387.23744953   -596.19332078    435.47540071
    C     11.06030471     30.41260347     59.78770714    633.20175097   -514.47734965    577.38149670
    C      8.85956585     27.77537505     67.70111742   -415.11942099    337.91803460    116.00219912
    H      7.72141213     28.97914396     66.35027611    -97.51360583    444.98752974   -152.45986669
    C     11.04858073     27.02262965     66.96374629   -501.04641437    -20.04529480    433.33002250
    C     13.46287666     28.99830724     60.23337216    727.74869320  -1130.70297094    768.89405668
    C     12.04055943     30.39176837     58.79295497    876.93775189   -627.56468533    180.07517479
    H     10.13330599     30.95809699     59.61509618    -57.08355346     22.48374286    -45.22259338
    C     10.07440676     27.05993337     67.92624226   -567.78549253    215.49094616    313.79929444
    H      8.10097682     27.79082247     68.48022713   -283.68216438    473.56898105   -403.98993942
    H     11.97339761     26.47565086     67.13803413   -523.59078232   -149.79358617    574.29887307
    H     14.38988757     28.45249978     60.40469055  -1757.70573749   1540.39732693  -1758.97701629
    C     13.27291357     29.66624584     59.02143668    796.49577844   -811.03750511    342.28883264
    C     11.86616417     31.06972165     57.53946565    794.04575620  -2717.65801715   2423.15502102
    H     10.21859257     26.54360017     68.87248852   -340.42634659    332.58333870    313.58361605
    C     14.26554401     29.65699498     57.98408873    874.34890155  -1039.17369315   1270.95591570
    C     12.84034042     31.03242314     56.57697206  -6190.41076696   9721.01295870 -10749.50335917
    H     10.94134802     31.61669978     57.36517406   -191.69315782     48.60093723     52.80907077
    C     14.05518065     30.31698037     56.80209656   1518.42725654  -1497.59483947    975.08962621
    H     15.19333584     29.11321201     58.15293734   1485.53496407  -1300.24872141   1496.26863160
    H     12.69615721     31.54876267     55.63072868   -192.09313452    392.39241406   -541.86752015
    H     14.81376916     30.30153258     56.02298662   9941.16734616   2112.37932452  -2607.86782097
   36
 Eigenmode          97   4052.2932776673965      cm-1
    C     10.43899177     29.08154596     63.25202773     91.13812527     24.52286282     47.63345675
    C      9.45186822     29.09404188     64.26983887    803.65202070   -256.31544521    295.24696553
    C     11.67467538     28.35415851     63.48133125     18.83308910     -9.63600090    -36.77899717
    C     10.25564107     29.75366672     62.02842620     79.92480515     96.15482507     65.14165378
    C      9.64183159     28.42610530     65.48177524    135.67061681     46.77705337     14.48306406
    H      8.52486015     29.63985441     64.09852366 -20738.10700899    413.35805984  -6744.40396152
    C     11.85443659     27.67973728     64.71550120     38.03470858    -37.02265973    -39.73633751
    C     12.65910207     28.33867900     62.47478366     -6.86460825    -36.38904322    -55.31379258
    C     11.24006580     29.73818261     61.02187700     17.09034270     52.13074459     10.19097436
    H      9.32893162     30.29944694     61.85562363    -53.36796103    -37.30205002    -80.56171458
    C      8.64920383     28.43536163     66.51912563    129.40891725    101.46075357     65.59120828
    C     10.87418350     27.70057862     65.71025517     36.77588739     -8.91614121     -3.44812839
    H     12.78143062     27.13423268     64.88810724    -89.09457598    276.23666829   -632.37095236
    H     13.58581323     27.79290169     62.64758664     90.31892204   -133.55383387    -91.08629810
    C     12.47575124     29.01079918     61.25118182    -11.05228480    -13.71296097    -33.22379194
    C     11.06030471     30.41260347     59.78770714     42.74027370    105.35746703     25.06077056
    C      8.85956585     27.77537505     67.70111742    124.56699697     72.69205511     54.21639390
    H      7.72141213     28.97914396     66.35027611    102.36572055    161.83086251      2.58243502
    C     11.04858073     27.02262965     66.96374629     61.56147495    -26.53538576    -31.05988493
    C     13.46287666     28.99830724     60.23337216    -34.11267232    -47.80900620    -89.40460579
    C     12.04055943     30.39176837     58.79295497    -15.22331219     41.41398487      3.43333485
    H     10.13330599     30.95809699     59.61509618     -7.96626746    -82.18378806    -39.26451221
    C     10.07440676     27.05993337     67.92624226     79.50081506      5.68919036      2.45865075
    H      8.10097682     27.79082247     68.48022713    199.08869353    104.72243597     98.83992096
    H     11.97339761     26.47565086     67.13803413     73.75473393   -112.30020099    -39.71123154
    H     14.38988757     28.45249978     60.40469055   -169.93982570   -397.46911239   -402.79321059
    C     13.27291357     29.66624584     59.02143668    -39.18459792    -20.74088348    -40.48717516
    C     11.86616417     31.06972165     57.53946565    -16.55316826    232.14773090    -20.82651489
    H     10.21859257     26.54360017     68.87248852     85.77103893    -88.16109697    123.63354004
    C     14.26554401     29.65699498     57.98408873   -106.18449349    -30.60722899    -88.92174666
    C     12.84034042     31.03242314     56.57697206    435.09063524   -300.95483645    591.50794358
    H     10.94134802     31.61669978     57.36517406     -6.79692149    -15.67973526     -7.34336347
    C     14.05518065     30.31698037     56.80209656   -102.84804696      3.40031509    -61.74789474
    H     15.19333584     29.11321201     58.15293734   -216.23716728    -11.35218021   -110.76237076
    H     12.69615721     31.54876267     55.63072868     12.87532877    -16.11870632     26.81316613
    H     14.81376916     30.30153258     56.02298662   -275.92458217     20.09592972   -134.25271191
   36
 Eigenmode          98   4232.3588373310786      cm-1
    C     10.43899177     29.08154596     63.25202773    -25.31260178     33.03889735     22.58736031
    C      9.45186822     29.09404188     64.26983887      7.09241711     47.43371373     46.83689163
    C     11.67467538     28.35415851     63.48133125    -34.08701854    -25.84072608    -14.34090474
    C     10.25564107     29.75366672     62.02842620      0.58011131     41.32129184     47.07789234
    C      9.64183159     28.42610530     65.48177524      5.29756714     36.29507540     34.21321496
    H      8.52486015     29.63985441     64.09852366    314.90608182     -9.74221258    241.47338820
    C     11.85443659     27.67973728     64.71550120     -8.48965369    -57.39323751    -17.53269031
    C     12.65910207     28.33867900     62.47478366    -65.08550845    -39.66183570    -36.43418669
    C     11.24006580     29.73818261     61.02187700    -55.93667870     30.50923198      9.70434680
    H      9.32893162     30.29944694     61.85562363   -129.47200778     -8.02817874   -234.37835499
    C      8.64920383     28.43536163     66.51912563     37.82859482     53.10233078     66.90783271
    C     10.87418350     27.70057862     65.71025517     -7.21180628    -21.48631381     -2.31280986
    H     12.78143062     27.13423268     64.88810724   -361.01408182    896.06287550   -599.22436783
    H     13.58581323     27.79290169     62.64758664     10.53944024    -98.73560150    -39.79215594
    C     12.47575124     29.01079918     61.25118182    -71.78956748    -29.28060754    -24.35182376
    C     11.06030471     30.41260347     59.78770714    -24.88445506     39.24341027     18.65860864
    C      8.85956585     27.77537505     67.70111742     40.49405506     35.52602388     47.48073717
    H      7.72141213     28.97914396     66.35027611     69.63072064     87.85084105     78.87892962
    C     11.04858073     27.02262965     66.96374629     -9.06941009    -41.55852623    -12.73700190
    C     13.46287666     28.99830724     60.23337216    -68.94923357    -48.53771546    -69.89916116
    C     12.04055943     30.39176837     58.79295497    -83.39685999     25.22101833      2.21336649
    H     10.13330599     30.95809699     59.61509618     -2.94909924    -61.77095999    -36.30092816
    C     10.07440676     27.05993337     67.92624226     16.17007447    -17.50012789      6.22042359
    H      8.10097682     27.79082247     68.48022713    100.19058875     34.81431760     83.92869774
    H     11.97339761     26.47565086     67.13803413      5.36018025    -90.47510588    -36.29000328
    H     14.38988757     28.45249978     60.40469055   -450.38443576    171.45252909   -646.55843324
    C     13.27291357     29.66624584     59.02143668    -94.54821886    -26.91528668     -1.95075874
    C     11.86616417     31.06972165     57.53946565    -35.98380901    130.32151231    -29.00748431
    H     10.21859257     26.54360017     68.87248852     56.14002923   -104.87463674    104.95716078
    C     14.26554401     29.65699498     57.98408873   -330.09608731     -1.03783124   -109.26659257
    C     12.84034042     31.03242314     56.57697206     67.92605251  -1012.70217897    531.94807990
    H     10.94134802     31.61669978     57.36517406     25.17373511     -9.34523445     -3.60987043
    C     14.05518065     30.31698037     56.80209656   -648.56835102    140.47737742    589.45818127
    H     15.19333584     29.11321201     58.15293734    811.06064311   -488.97335292     85.38200030
    H     12.69615721     31.54876267     55.63072868     40.81446940     11.56083661     60.86502732
    H     14.81376916     30.30153258     56.02298662  16047.82601068   8122.77163167 -12230.69715791
   36
 Eigenmode          99   4366.4405316184939      cm-1
    C     10.43899177     29.08154596     63.25202773     12.27018483    -19.18923774     41.99147733
    C      9.45186822     29.09404188     64.26983887      8.70836370     19.59845785     40.56761902
    C     11.67467538     28.35415851     63.48133125     58.68729710   -134.88063469    -19.72483869
    C     10.25564107     29.75366672     62.02842620     49.70742550     14.74260511     55.97056727
    C      9.64183159     28.42610530     65.48177524     17.02465437    -21.10351050     19.24184272
    H      8.52486015     29.63985441     64.09852366    611.09593668     36.83561036    272.84151740
    C     11.85443659     27.67973728     64.71550120    493.24775257   -422.14006205     89.38546515
    C     12.65910207     28.33867900     62.47478366     -3.43501189   -142.90447269    -40.70537383
    C     11.24006580     29.73818261     61.02187700     16.27426719    -12.72046630     27.28677424
    H      9.32893162     30.29944694     61.85562363   -625.21073209   -167.68942110   -626.00786875
    C      8.64920383     28.43536163     66.51912563     28.89161137     -2.97703430     41.81644035
    C     10.87418350     27.70057862     65.71025517     -8.55625071   -122.33985624     -1.61954508
    H     12.78143062     27.13423268     64.88810724  -7774.65826456  19305.23411577  -6414.45972681
    H     13.58581323     27.79290169     62.64758664   -345.59061985    -15.25589057   -119.43229529
    C     12.47575124     29.01079918     61.25118182    -27.67613544    -85.88408459     -8.83434073
    C     11.06030471     30.41260347     59.78770714     43.75988295     37.82320462     61.97022587
    C      8.85956585     27.77537505     67.70111742     15.06574056    -49.29127305     23.20471628
    H      7.72141213     28.97914396     66.35027611    100.53882157     55.82285578     80.73836357
    C     11.04858073     27.02262965     66.96374629    -13.98008675   -165.28037304    -34.69744412
    C     13.46287666     28.99830724     60.23337216    -25.14032471   -127.87299245    -43.23899912
    C     12.04055943     30.39176837     58.79295497     19.34705830     -1.91371859     25.23604546
    H     10.13330599     30.95809699     59.61509618    -31.83881791    -68.84832471    -71.80868334
    C     10.07440676     27.05993337     67.92624226    -17.99284560   -125.46454500    -16.01748416
    H      8.10097682     27.79082247     68.48022713     33.03807560      4.69821387     32.28235119
    H     11.97339761     26.47565086     67.13803413   -355.55672863    -90.24744972    -99.99534888
    H     14.38988757     28.45249978     60.40469055     75.39277530   -669.74854609    -54.05745731
    C     13.27291357     29.66624584     59.02143668    -23.35966275    -70.70819568    -10.22567961
    C     11.86616417     31.06972165     57.53946565     27.69017730     89.26415454    138.55559522
    H     10.21859257     26.54360017     68.87248852    -75.04698059   -132.56786564   -143.28698976
    C     14.26554401     29.65699498     57.98408873    -51.48636883   -100.97943809      6.52296463
    C     12.84034042     31.03242314     56.57697206    195.07546808     19.09351088    192.96285397
    H     10.94134802     31.61669978     57.36517406    -31.34229502     -5.91277799    -12.80509726
    C     14.05518065     30.31698037     56.80209656     -5.63265224    -67.71420671    -40.16463264
    H     15.19333584     29.11321201     58.15293734   -310.55205208    -15.34769807    -37.18786453
    H     12.69615721     31.54876267     55.63072868     -1.46974437     -7.43050890     -2.07600909
    H     14.81376916     30.30153258     56.02298662   -901.70755266   -442.80179094    648.32471498
   36
 Eigenmode         100   4452.3910018995739      cm-1
    C     10.43899177     29.08154596     63.25202773     13.49060696     -1.02268792     19.31857510
    C      9.45186822     29.09404188     64.26983887     14.55154101     27.47135036     12.69753648
    C     11.67467538     28.35415851     63.48133125     -8.86201754    -33.65397797     13.22191269
    C     10.25564107     29.75366672     62.02842620     38.43322078     13.20534906     22.46601369
    C      9.64183159     28.42610530     65.48177524      2.77547842      9.80753542     17.63778064
    H      8.52486015     29.63985441     64.09852366    219.04097846     29.44953100     52.26135389
    C     11.85443659     27.67973728     64.71550120     -0.27011909    -49.40413581      6.00182545
    C     12.65910207     28.33867900     62.47478366     46.98271211    -74.32027447     11.59705063
    C     11.24006580     29.73818261     61.02187700     41.43569137    -15.57598441     16.90441386
    H      9.32893162     30.29944694     61.85562363  -1308.32528060   -982.85316080    883.51642841
    C      8.64920383     28.43536163     66.51912563      2.21990165     36.86680656     13.21250173
    C     10.87418350     27.70057862     65.71025517    -22.82390538    -20.81284307     12.60733721
    H     12.78143062     27.13423268     64.88810724   -152.57157964    199.63596203    -71.52592811
    H     13.58581323     27.79290169     62.64758664   -478.72758410     94.22105383    -20.73331049
    C     12.47575124     29.01079918     61.25118182     23.58005922    -53.48595641     21.91848094
    C     11.06030471     30.41260347     59.78770714     28.65091830     12.56085592     32.32945342
    C      8.85956585     27.77537505     67.70111742     -9.63621635     21.87712655     13.20396266
    H      7.72141213     28.97914396     66.35027611     30.80313295     60.65682264     21.28664062
    C     11.04858073     27.02262965     66.96374629    -30.80961623    -32.47960585      5.06293358
    C     13.46287666     28.99830724     60.23337216    578.26867549   -470.85282448    200.16235227
    C     12.04055943     30.39176837     58.79295497     44.64524754    -28.96034308     35.30919816
    H     10.13330599     30.95809699     59.61509618    -28.74475265     -8.38639760    -25.87104717
    C     10.07440676     27.05993337     67.92624226    -31.55972584     -8.55711624     10.75185370
    H      8.10097682     27.79082247     68.48022713      9.66405903     58.64412463    -13.92511016
    H     11.97339761     26.47565086     67.13803413    -82.75085068    -41.16257518     -4.02014745
    H     14.38988757     28.45249978     60.40469055 -11836.93651232  14564.95452863 -10971.28002127
    C     13.27291357     29.66624584     59.02143668    134.90005829    -98.18744456     -9.09397910
    C     11.86616417     31.06972165     57.53946565     29.24965825    -27.03155091     36.56818491
    H     10.21859257     26.54360017     68.87248852    -54.44931304     11.45140490    -55.06043819
    C     14.26554401     29.65699498     57.98408873     70.32270204    -81.58148679     42.98682362
    C     12.84034042     31.03242314     56.57697206    231.50436986   -213.67322278    303.67425864
    H     10.94134802     31.61669978     57.36517406    -23.60649922      5.21036815    -16.39169798
    C     14.05518065     30.31698037     56.80209656     54.64819018    -81.17410377    -16.83989133
    H     15.19333584     29.11321201     58.15293734   -689.71908271    285.27194855   -134.27145665
    H     12.69615721     31.54876267     55.63072868    -10.27831719     -8.40910472      7.28363583
    H     14.81376916     30.30153258     56.02298662   -506.97592477   -340.60488231    558.45338726
   36
 Eigenmode         101   4495.5446106035515      cm-1
    C     10.43899177     29.08154596     63.25202773     23.20222955   -105.04534873     55.90107997
    C      9.45186822     29.09404188     64.26983887    -51.22451100   -121.96567331     21.79553236
    C     11.67467538     28.35415851     63.48133125    -20.27144061     -8.35076714     77.59060803
    C     10.25564107     29.75366672     62.02842620   -141.39142270   -121.59621278    120.98488254
    C      9.64183159     28.42610530     65.48177524    -24.61513868    -95.05715449     56.30522665
    H      8.52486015     29.63985441     64.09852366   -206.50157601    -95.63197558    296.24333547
    C     11.85443659     27.67973728     64.71550120     15.83447444      2.32344281     68.72262144
    C     12.65910207     28.33867900     62.47478366     -3.04715945     22.02160269     72.59665189
    C     11.24006580     29.73818261     61.02187700   -139.31649410     -0.38383748     28.84434298
    H      9.32893162     30.29944694     61.85562363  11796.87244972  10804.09961486 -14781.91519787
    C      8.64920383     28.43536163     66.51912563    -32.32474914   -131.88003658     44.38519939
    C     10.87418350     27.70057862     65.71025517      4.27213546    -33.06770969     65.37175334
    H     12.78143062     27.13423268     64.88810724    -26.35609001    150.66714470    272.56189117
    H     13.58581323     27.79290169     62.64758664    -53.26042222     78.06379444     50.30050545
    C     12.47575124     29.01079918     61.25118182    -28.34312622      6.23393520     81.08973453
    C     11.06030471     30.41260347     59.78770714    -92.24968218    -94.98398290     30.62190435
    C      8.85956585     27.77537505     67.70111742     -8.20790292   -116.76509795     55.25304507
    H      7.72141213     28.97914396     66.35027611    -64.88427074   -185.30180704     53.80960754
    C     11.04858073     27.02262965     66.96374629     31.30479430    -16.07887181     69.35739681
    C     13.46287666     28.99830724     60.23337216     29.25639693     28.70147282     83.60596687
    C     12.04055943     30.39176837     58.79295497    -94.80532081    -25.61649837     56.31639350
    H     10.13330599     30.95809699     59.61509618     -9.10850588    106.23528080    -63.37214919
    C     10.07440676     27.05993337     67.92624226     24.68054682    -52.94100090     62.82268999
    H      8.10097682     27.79082247     68.48022713    -45.33278416   -182.88200103     99.72320035
    H     11.97339761     26.47565086     67.13803413     53.51954583     26.29095839     82.73107214
    H     14.38988757     28.45249978     60.40469055   -916.05831870   1445.41807655   -689.20091047
    C     13.27291357     29.66624584     59.02143668    -49.34715661     23.15247538     68.91655226
    C     11.86616417     31.06972165     57.53946565    -35.08110683   -100.89706186     61.66992438
    H     10.21859257     26.54360017     68.87248852     60.86929608    -77.81228978    136.62723846
    C     14.26554401     29.65699498     57.98408873    -29.79078726     36.77556121     47.28535857
    C     12.84034042     31.03242314     56.57697206   -180.12404689   -157.70497098    -75.41947488
    H     10.94134802     31.61669978     57.36517406     30.79069246     29.56321604    -10.22630134
    C     14.05518065     30.31698037     56.80209656    -66.37187240     43.60422492     56.74675494
    H     15.19333584     29.11321201     58.15293734    -68.54912490     79.04967084     30.36898200
    H     12.69615721     31.54876267     55.63072868      3.86421089     -7.11539663     -5.27571237
    H     14.81376916     30.30153258     56.02298662   -214.38127591    -23.36915313    101.75402063
   36
 Eigenmode         102   4684.0713457204120      cm-1
    C     10.43899177     29.08154596     63.25202773   -114.55516639    -51.29617432    -67.83792924
    C      9.45186822     29.09404188     64.26983887   -126.54219640   -134.45446681    -82.50145765
    C     11.67467538     28.35415851     63.48133125     11.01485683     39.54049777    -22.88818020
    C     10.25564107     29.75366672     62.02842620   -388.47870105     50.07946342   -276.91927234
    C      9.64183159     28.42610530     65.48177524    -72.82810075    -86.92046137    -81.38051841
    H      8.52486015     29.63985441     64.09852366   -294.98355155    -37.73413179   -223.25130697
    C     11.85443659     27.67973728     64.71550120     27.11385167     67.46075193     18.73661167
    C     12.65910207     28.33867900     62.47478366     18.93572131     75.71947914     18.29547971
    C     11.24006580     29.73818261     61.02187700    -48.38776780    -69.53566764    -66.65541956
    H      9.32893162     30.29944694     61.85562363  14653.92129219   4779.51528349  15427.77289520
    C      8.64920383     28.43536163     66.51912563   -110.66910103   -142.07411138   -110.60544288
    C     10.87418350     27.70057862     65.71025517    -18.97271035     23.19642271    -21.35084785
    H     12.78143062     27.13423268     64.88810724   -394.84625245   1055.33809947    -77.83137987
    H     13.58581323     27.79290169     62.64758664    -59.89294410    164.44648348     26.48618827
    C     12.47575124     29.01079918     61.25118182     12.80198857     45.60498665     -4.39593554
    C     11.06030471     30.41260347     59.78770714   -109.89215438   -158.59236816   -116.86676134
    C      8.85956585     27.77537505     67.70111742    -91.83015686    -93.63551305    -86.16953034
    H      7.72141213     28.97914396     66.35027611   -174.34212161   -223.02468731   -139.23940209
    C     11.04858073     27.02262965     66.96374629     -0.30840956     72.53647417      3.75423479
    C     13.46287666     28.99830724     60.23337216     32.95882871     88.06746713     35.83377888
    C     12.04055943     30.39176837     58.79295497    -33.48476271    -66.09585127    -59.76548761
    H     10.13330599     30.95809699     59.61509618     33.75487155    211.64943496    146.80522990
    C     10.07440676     27.05993337     67.92624226    -31.37753623     18.54344337    -28.24319428
    H      8.10097682     27.79082247     68.48022713   -182.29600474   -140.05627303   -104.99918523
    H     11.97339761     26.47565086     67.13803413      6.15829642    167.41853825     41.53685235
    H     14.38988757     28.45249978     60.40469055   -166.45987239    691.59917947     19.05936637
    C     13.27291357     29.66624584     59.02143668     18.65384084     41.21667713     -6.98659961
    C     11.86616417     31.06972165     57.53946565    -37.33459313   -228.62524676   -183.44198052
    H     10.21859257     26.54360017     68.87248852    -29.80115813     90.54383547    -43.11452839
    C     14.26554401     29.65699498     57.98408873     70.71087010     82.66638715     10.14106801
    C     12.84034042     31.03242314     56.57697206   -189.73570277   -205.39027843   -133.95867694
    H     10.94134802     31.61669978     57.36517406     50.87753687     29.21434105     19.59774227
    C     14.05518065     30.31698037     56.80209656     26.47181420     44.01795857      0.44922358
    H     15.19333584     29.11321201     58.15293734    145.27438789    116.62703539     16.97335590
    H     12.69615721     31.54876267     55.63072868    -10.18378118     -0.88106424      6.79989588
    H     14.81376916     30.30153258     56.02298662    193.03834795    100.82136778    -71.24887773
   36
 Eigenmode         103   6478.7912997545609      cm-1
    C     10.43899177     29.08154596     63.25202773    -50.79519708   -124.60831006    -84.03931161
    C      9.45186822     29.09404188     64.26983887   -102.19700697   -183.04748268   -108.01925291
    C     11.67467538     28.35415851     63.48133125     28.41793202     37.90561883     -3.06516921
    C     10.25564107     29.75366672     62.02842620   -115.91020332   -230.25357351   -125.61610432
    C      9.64183159     28.42610530     65.48177524    -47.73373834   -101.10113133    -74.94805157
    H      8.52486015     29.63985441     64.09852366   -268.67942956   -183.23374095   -203.26324000
    C     11.85443659     27.67973728     64.71550120     63.56262678    124.42330902     43.93539818
    C     12.65910207     28.33867900     62.47478366     56.78740079     99.42678230     34.02048977
    C     11.24006580     29.73818261     61.02187700    -63.36845560   -141.70332132    -91.99623364
    H      9.32893162     30.29944694     61.85562363   -473.70209824   -342.67888081   -338.75318079
    C      8.64920383     28.43536163     66.51912563    -86.75109211   -164.95717245   -108.43503820
    C     10.87418350     27.70057862     65.71025517     32.33794715     61.89767600      6.35426802
    H     12.78143062     27.13423268     64.88810724    -23.55213608    341.60720486    143.66533782
    H     13.58581323     27.79290169     62.64758664     87.04512220    220.03904770     83.96435140
    C     12.47575124     29.01079918     61.25118182     27.49542435     21.26191364     -9.77029494
    C     11.06030471     30.41260347     59.78770714   -100.87151301   -264.24868228   -140.21388911
    C      8.85956585     27.77537505     67.70111742    -46.51231060    -75.38508366    -65.44342192
    H      7.72141213     28.97914396     66.35027611   -163.54970848   -285.98262327   -162.82296626
    C     11.04858073     27.02262965     66.96374629     71.61759718    151.26127735     50.09353820
    C     13.46287666     28.99830724     60.23337216     47.45733170     77.72506609     29.31867432
    C     12.04055943     30.39176837     58.79295497    -49.01189573   -173.49962270    -96.44816042
    H     10.13330599     30.95809699     59.61509618   5543.70890620  16585.53928056  13062.49457929
    C     10.07440676     27.05993337     67.92624226     33.80709360     85.58163664     15.51797959
    H      8.10097682     27.79082247     68.48022713   -102.04922244   -124.60152811    -83.79876344
    H     11.97339761     26.47565086     67.13803413    119.18923770    273.23004501    111.28310817
    H     14.38988757     28.45249978     60.40469055     86.52647064    256.92096826    148.14339656
    C     13.27291357     29.66624584     59.02143668     23.00572294     -1.65614433    -19.43466646
    C     11.86616417     31.06972165     57.53946565    -64.24507852   -356.73155079   -207.43312456
    H     10.21859257     26.54360017     68.87248852     52.56699659    174.35807323     59.51263243
    C     14.26554401     29.65699498     57.98408873     61.58726562     48.12438175      9.05238822
    C     12.84034042     31.03242314     56.57697206   -175.60910305   -299.11387844   -114.18103279
    H     10.94134802     31.61669978     57.36517406    240.04104049    122.18738163     73.26624150
    C     14.05518065     30.31698037     56.80209656     13.52051614    -33.89943367    -27.90884505
    H     15.19333584     29.11321201     58.15293734    156.85543921    130.48071211     42.02053348
    H     12.69615721     31.54876267     55.63072868    -34.27174777      2.70318724     40.90848284
    H     14.81376916     30.30153258     56.02298662     62.94545515     17.52480544     -5.58388251
   36
 Eigenmode         104   6788.7680403477307      cm-1
    C     10.43899177     29.08154596     63.25202773      3.28657110     60.82009874    -56.57265073
    C      9.45186822     29.09404188     64.26983887      4.82400913     78.67148446    -56.00225680
    C     11.67467538     28.35415851     63.48133125    -14.74809942     26.99347062    -62.38012906
    C     10.25564107     29.75366672     62.02842620      2.84801095     82.75754824    -36.79589898
    C      9.64183159     28.42610530     65.48177524    -10.40201800     63.59724995    -58.96035079
    H      8.52486015     29.63985441     64.09852366     46.87180983     77.23094175    -70.09901580
    C     11.85443659     27.67973728     64.71550120    -29.98066585     13.79648160    -69.00831012
    C     12.65910207     28.33867900     62.47478366    -17.48807780     10.64949824    -62.97980697
    C     11.24006580     29.73818261     61.02187700    -25.73762079     79.47306777    -55.03957621
    H      9.32893162     30.29944694     61.85562363    121.40592311    141.71658204   -115.75920197
    C      8.64920383     28.43536163     66.51912563     -8.63063007     81.18972565    -57.67678384
    C     10.87418350     27.70057862     65.71025517    -28.66617274     30.60747626    -66.19259039
    H     12.78143062     27.13423268     64.88810724    -33.24965905      0.90485135   -110.45020596
    H     13.58581323     27.79290169     62.64758664    -46.21562561     -4.80851928    -84.02649972
    C     12.47575124     29.01079918     61.25118182      2.78254665     24.79102627    -66.88359967
    C     11.06030471     30.41260347     59.78770714    -98.65359928    176.82439923   -126.79204887
    C      8.85956585     27.77537505     67.70111742    -23.37179186     66.92060725    -63.50647145
    H      7.72141213     28.97914396     66.35027611      7.61368753    107.98724506    -53.12977067
    C     11.04858073     27.02262965     66.96374629    -43.54861068     16.52882366    -72.06491310
    C     13.46287666     28.99830724     60.23337216     -6.50573420      4.74501631    -62.59538915
    C     12.04055943     30.39176837     58.79295497     47.96314698     44.16635042    -47.46322707
    H     10.13330599     30.95809699     59.61509618   2240.21948147 -13855.01905459  16770.13671693
    C     10.07440676     27.05993337     67.92624226    -41.37069014     34.16963680    -70.27065383
    H      8.10097682     27.79082247     68.48022713    -19.77664884     89.69261679    -74.57578136
    H     11.97339761     26.47565086     67.13803413    -59.65593838     -6.42914493    -79.36197031
    H     14.38988757     28.45249978     60.40469055    -65.10566077     -9.90647029    -75.64873799
    C     13.27291357     29.66624584     59.02143668     13.08598125     20.00770050    -58.29318354
    C     11.86616417     31.06972165     57.53946565     42.85743823     93.64056880    -45.63012766
    H     10.21859257     26.54360017     68.87248852    -58.23318133     30.58603417    -92.61377899
    C     14.26554401     29.65699498     57.98408873      7.29984307     12.03449333    -53.49333088
    C     12.84034042     31.03242314     56.57697206     30.39533089     92.98187401    -36.87236864
    H     10.94134802     31.61669978     57.36517406   -114.59192474    -90.49545609     62.14515647
    C     14.05518065     30.31698037     56.80209656     23.85274008     16.98153460    -55.75128016
    H     15.19333584     29.11321201     58.15293734    -14.37124684     -0.18763677    -55.60194323
    H     12.69615721     31.54876267     55.63072868     -4.32645687      4.29288893      4.81294070
    H     14.81376916     30.30153258     56.02298662     23.81642339     22.86659651    -45.55843936
   36
 Eigenmode         105   9721.9457683166893      cm-1
    C     10.43899177     29.08154596     63.25202773     68.92804174    112.43563225     -1.88900403
    C      9.45186822     29.09404188     64.26983887     85.65025663    165.29011256      6.95102743
    C     11.67467538     28.35415851     63.48133125     -5.29958780    -30.02783153    -50.20677226
    C     10.25564107     29.75366672     62.02842620    130.50910402    197.99453799     35.65377645
    C      9.64183159     28.42610530     65.48177524     23.19671766     87.04045421    -25.58782845
    H      8.52486015     29.63985441     64.09852366    172.01982883    219.17791878     35.85123059
    C     11.85443659     27.67973728     64.71550120    -61.55858760   -108.89168586    -87.20575585
    C     12.65910207     28.33867900     62.47478366    -15.70792415    -83.76032883    -62.30404502
    C     11.24006580     29.73818261     61.02187700    115.70033856    137.40488475     21.51165525
    H      9.32893162     30.29944694     61.85562363    285.81888909    296.83438560     70.13397861
    C      8.64920383     28.43536163     66.51912563     35.93020267    140.72540033    -14.46941584
    C     10.87418350     27.70057862     65.71025517    -50.88645252    -55.21689247    -74.19208090
    H     12.78143062     27.13423268     64.88810724    -49.86803258   -229.87575855   -142.78878880
    H     13.58581323     27.79290169     62.64758664    -60.94752848   -186.08996426    -95.36207480
    C     12.47575124     29.01079918     61.25118182     41.06201718     -4.65964037    -26.50382299
    C     11.06030471     30.41260347     59.78770714    174.26499696    232.65997664     71.34203301
    C      8.85956585     27.77537505     67.70111742    -22.06190316     60.45158329    -49.60523763
    H      7.72141213     28.97914396     66.35027611     95.33593416    248.56353509     19.21412698
    C     11.04858073     27.02262965     66.96374629   -109.35663059   -135.43192083   -109.87893094
    C     13.46287666     28.99830724     60.23337216     28.16011439    -60.83287622    -38.26329430
    C     12.04055943     30.39176837     58.79295497    156.63493493    165.22210634     44.02914626
    H     10.13330599     30.95809699     59.61509618    215.70307090    635.99025663    148.09644643
    C     10.07440676     27.05993337     67.92624226    -94.32192903    -79.67982345    -98.62928450
    H      8.10097682     27.79082247     68.48022713     -9.02411770    104.02237426    -46.78865105
    H     11.97339761     26.47565086     67.13803413   -159.98481212   -241.33206593   -147.05457743
    H     14.38988757     28.45249978     60.40469055    -29.75422100   -192.97969577    -89.07390126
    C     13.27291357     29.66624584     59.02143668     87.25930071     18.97152265     -5.89764945
    C     11.86616417     31.06972165     57.53946565    185.11817100    241.35088428    101.80822142
    H     10.21859257     26.54360017     68.87248852   -129.25804393   -148.90061961   -136.46380088
    C     14.26554401     29.65699498     57.98408873     75.20569238    -25.67751579     -8.74561884
    C     12.84034042     31.03242314     56.57697206    251.87204439    225.73884713     97.60560563
    H     10.94134802     31.61669978     57.36517406 -15197.44303428 -15260.87620606   3582.88164555
    C     14.05518065     30.31698037     56.80209656    130.69329321     44.17255687     17.15005530
    H     15.19333584     29.11321201     58.15293734     20.67467216   -121.80732231    -31.86792850
    H     12.69615721     31.54876267     55.63072868     21.29305607     50.04381203   -102.63789724
    H     14.81376916     30.30153258     56.02298662    158.55292925     -9.88633169      1.83232994
   36
 Eigenmode         106   9931.0328966449215      cm-1
    C     10.43899177     29.08154596     63.25202773     33.31032228     15.23124146     78.33777028
    C      9.45186822     29.09404188     64.26983887     44.88929054     35.69176731     85.93975463
    C     11.67467538     28.35415851     63.48133125      0.38680303    -50.95780526     51.41190929
    C     10.25564107     29.75366672     62.02842620     60.96073310     54.50097709     99.15509622
    C      9.64183159     28.42610530     65.48177524     18.23165080     -0.73736768     68.13831773
    H      8.52486015     29.63985441     64.09852366     79.05471444     62.53744916    112.26987600
    C     11.85443659     27.67973728     64.71550120    -22.10447722    -89.52439676     33.77756868
    C     12.65910207     28.33867900     62.47478366     -6.90957487    -73.51898216     44.45649743
    C     11.24006580     29.73818261     61.02187700     48.63669389     30.87568591     88.75574195
    H      9.32893162     30.29944694     61.85562363    121.70287580     96.05119522    138.59015504
    C      8.64920383     28.43536163     66.51912563     27.16239919     21.22771599     76.55082220
    C     10.87418350     27.70057862     65.71025517    -14.57601109    -67.02935916     41.37695641
    H     12.78143062     27.13423268     64.88810724     -5.02882251   -152.18306876     17.13490960
    H     13.58581323     27.79290169     62.64758664    -22.59812724   -121.99552840     28.68365200
    C     12.47575124     29.01079918     61.25118182     15.72074705    -34.91605326     61.49359942
    C     11.06030471     30.41260347     59.78770714     88.32972662     71.53833712    102.43550903
    C      8.85956585     27.77537505     67.70111742      3.75190736    -17.92084349     58.14153426
    H      7.72141213     28.97914396     66.35027611     54.23744630     69.85529572     94.45133650
    C     11.04858073     27.02262965     66.96374629    -38.65639018   -106.19051521     23.62798787
    C     13.46287666     28.99830724     60.23337216      9.32081660    -58.48616084     54.50920132
    C     12.04055943     30.39176837     58.79295497     83.94246926     35.93682012    100.16066234
    H     10.13330599     30.95809699     59.61509618    120.60532279    210.68808250    240.66182749
    C     10.07440676     27.05993337     67.92624226    -28.73920364    -82.60764316     31.08582460
    H      8.10097682     27.79082247     68.48022713     13.91035919     -5.78316071     64.63849381
    H     11.97339761     26.47565086     67.13803413    -58.57198186   -155.83371192      3.77010829
    H     14.38988757     28.45249978     60.40469055     18.78157605   -129.02188907     28.19698725
    C     13.27291357     29.66624584     59.02143668     27.86277499    -20.24404095     74.91340862
    C     11.86616417     31.06972165     57.53946565    124.56044045     44.43861177    155.24581672
    H     10.21859257     26.54360017     68.87248852    -35.28440084   -120.38828894     18.53269016
    C     14.26554401     29.65699498     57.98408873     22.54116039    -42.60275494     68.13241593
    C     12.84034042     31.03242314     56.57697206    100.49525861     71.17594487    134.92661851
    H     10.94134802     31.61669978     57.36517406  -8075.19481486   3580.43520916 -19999.31076604
    C     14.05518065     30.31698037     56.80209656     44.38171432     -4.53102079     81.50460468
    H     15.19333584     29.11321201     58.15293734      7.66117044    -96.35792912     46.68164663
    H     12.69615721     31.54876267     55.63072868     60.33048450      2.84501546    -84.38251962
    H     14.81376916     30.30153258     56.02298662     53.30490191    -39.97108820     58.85918854
   36
 Eigenmode         107   14107.332272023543      cm-1
    C     10.43899177     29.08154596     63.25202773     31.29125720    -27.79270538    -63.25091710
    C      9.45186822     29.09404188     64.26983887      4.32964490     -3.10904827    -88.13489110
    C     11.67467538     28.35415851     63.48133125     33.56390160     -5.36547302     -7.28653849
    C     10.25564107     29.75366672     62.02842620     49.17462846    -70.25311445    -89.80417158
    C      9.64183159     28.42610530     65.48177524    -17.46329188     39.48768549    -60.78482412
    H      8.52486015     29.63985441     64.09852366      1.55850000    -13.59613701   -135.78176511
    C     11.85443659     27.67973728     64.71550120     10.14448462     38.96297387     20.53739535
    C     12.65910207     28.33867900     62.47478366     58.76316483    -28.98530839     18.00901833
    C     11.24006580     29.73818261     61.02187700     80.10311081    -95.09342438    -65.77009105
    H      9.32893162     30.29944694     61.85562363     33.34126110    -63.75388980   -140.28168146
    C      8.64920383     28.43536163     66.51912563    -43.77618081     63.66172066    -86.13513530
    C     10.87418350     27.70057862     65.71025517    -14.87993451     61.74078753     -4.95312694
    H     12.78143062     27.13423268     64.88810724      5.18557206     57.72845357     66.74830862
    H     13.58581323     27.79290169     62.64758664     59.42000116    -13.14933107     59.83675820
    C     12.47575124     29.01079918     61.25118182     81.90090626    -72.35351343     -9.56549292
    C     11.06030471     30.41260347     59.78770714     92.00749381   -137.05739832    -88.37739990
    C      8.85956585     27.77537505     67.70111742    -65.08559380    106.55181374    -58.93990162
    H      7.72141213     28.97914396     66.35027611    -46.43280874     47.63030627   -128.66382237
    C     11.04858073     27.02262965     66.96374629    -38.45630959    106.80828573     22.70462720
    C     13.46287666     28.99830724     60.23337216    105.84409821    -98.52944601     16.46037874
    C     12.04055943     30.39176837     58.79295497    131.48077046   -161.05724661    -69.01502112
    H     10.13330599     30.95809699     59.61509618     28.75820318   -178.64224725   -152.28977464
    C     10.07440676     27.05993337     67.92624226    -63.09966193    128.81015088     -3.15410832
    H      8.10097682     27.79082247     68.48022713    -83.78193564    123.93179342    -83.48774131
    H     11.97339761     26.47565086     67.13803413    -37.16214118    123.72487544     64.69285064
    H     14.38988757     28.45249978     60.40469055    106.43863017    -86.27272437     68.63416259
    C     13.27291357     29.66624584     59.02143668    131.51147754   -139.17987405    -13.31160212
    C     11.86616417     31.06972165     57.53946565    117.36672125   -217.97863538    -99.19647901
    H     10.21859257     26.54360017     68.87248852    -77.17903628    166.94828747     16.67849352
    C     14.26554401     29.65699498     57.98408873    156.24843230   -155.65109130     19.76048270
    C     12.84034042     31.03242314     56.57697206    154.55576660   -232.14787128    -36.03076752
    H     10.94134802     31.61669978     57.36517406     -8.83000198   -117.39732779   -139.04149347
    C     14.05518065     30.31698037     56.80209656    179.73261649   -213.36593853    -11.01761149
    H     15.19333584     29.11321201     58.15293734    165.73954736   -146.50480933     69.98158983
    H     12.69615721     31.54876267     55.63072868 -14343.83893334  13543.07723354   9405.68837137
    H     14.81376916     30.30153258     56.02298662    193.96309361   -195.82863240     49.75269815
   36
 Eigenmode         108   14519.614076634225      cm-1
    C     10.43899177     29.08154596     63.25202773    -15.50885749      5.86651837    -56.29884513
    C      9.45186822     29.09404188     64.26983887     -5.38732416     -4.71070907    -46.05097787
    C     11.67467538     28.35415851     63.48133125      2.03575403     34.64433927    -63.53179520
    C     10.25564107     29.75366672     62.02842620    -44.15585121     -8.93311595    -62.24658094
    C      9.64183159     28.42610530     65.48177524     23.14855930      9.38899260    -41.52686747
    H      8.52486015     29.63985441     64.09852366    -18.57430053    -20.26931526    -40.92819293
    C     11.85443659     27.67973728     64.71550120     29.82958965     49.36734216    -59.83326196
    C     12.65910207     28.33867900     62.47478366     -8.67050704     46.22919480    -75.18313593
    C     11.24006580     29.73818261     61.02187700    -54.38593130      2.38300908    -71.24054565
    H      9.32893162     30.29944694     61.85562363    -63.11049765    -29.97483708    -60.05649788
    C      8.64920383     28.43536163     66.51912563     34.11772634     -1.64397670    -31.13580151
    C     10.87418350     27.70057862     65.71025517     40.58382085     38.18566710    -48.75398882
    H     12.78143062     27.13423268     64.88810724     24.98060736     71.82805217    -69.89562349
    H     13.58581323     27.79290169     62.64758664      1.05067008     67.66190757    -81.96180422
    C     12.47575124     29.01079918     61.25118182    -36.75797778     31.10197977    -78.30116615
    C     11.06030471     30.41260347     59.78770714    -83.20497137    -13.06909145    -79.01043591
    C      8.85956585     27.77537505     67.70111742     61.15812617     13.63158853    -26.65618837
    H      7.72141213     28.97914396     66.35027611     20.60446068    -22.50854054    -24.16530424
    C     11.04858073     27.02262965     66.96374629     69.30722084     53.25560448    -44.69677839
    C     13.46287666     28.99830724     60.23337216    -47.49156166     43.05580320    -90.97284870
    C     12.04055943     30.39176837     58.79295497    -91.42023491     -0.48665542    -86.62324881
    H     10.13330599     30.95809699     59.61509618    -82.36126160    -50.34388404    -95.17931539
    C     10.07440676     27.05993337     67.92624226     78.50794754     41.28377995    -33.62040431
    H      8.10097682     27.79082247     68.48022713     68.74073361      8.92335626    -16.91793004
    H     11.97339761     26.47565086     67.13803413     80.08976808     74.68821301    -50.26194398
    H     14.38988757     28.45249978     60.40469055    -49.97687862     68.84082070    -95.76843075
    C     13.27291357     29.66624584     59.02143668    -75.03413895     27.18019998    -92.66244934
    C     11.86616417     31.06972165     57.53946565   -108.09754130    -11.50413124   -105.94100210
    H     10.21859257     26.54360017     68.87248852     90.50823497     55.45719772    -30.55648720
    C     14.26554401     29.65699498     57.98408873    -88.69194794     39.58704991   -105.33437109
    C     12.84034042     31.03242314     56.57697206   -162.85183158     37.80145430   -164.20245150
    H     10.94134802     31.61669978     57.36517406   -231.73607624    -94.73708095   -125.12299838
    C     14.05518065     30.31698037     56.80209656   -111.28190600     25.68947472   -118.29237529
    H     15.19333584     29.11321201     58.15293734    -85.47517841     80.71042476   -114.43233660
    H     12.69615721     31.54876267     55.63072868   7461.63559938  -5724.76737344  19739.61440544
    H     14.81376916     30.30153258     56.02298662   -136.05388280     53.94059891    -83.96337331
