72
title
C      8.295952133688  12.711810665301  19.740041323149
C      7.287555668381  12.732153968624  20.740072871907
C      9.516041839490  11.997311634345  19.962775113469
C      8.090893357707  13.398644518860  18.517160440635
C      7.501696801105  12.054894264078  21.953445349800
H      6.468732358688  13.221498790433  20.590608068069
C      9.718415641922  11.297377896864  21.192955007387
C     10.526207366338  11.972516686821  18.963926705067
C      9.103045089517  13.383540223781  17.521771330680
H      7.271377792186  13.890140697539  18.354023949616
C      6.494875866613  12.098618504884  22.972157894001
C      8.721480323192  11.342159707768  22.180811842993
H     10.542062483014  10.808494906463  21.347549981930
H     11.346559427409  11.485712647081  19.141805615151
C     10.320301729679  12.665675276007  17.747138303711
C      8.901095211584  14.073655313679  16.289832403830
C      6.707080302584  11.427533615017  24.186367632870
H      5.665455848388  12.566222557458  22.807009076625
C      8.925132249881  10.659982831216  23.425059890256
C     11.328637369713  12.645857983366  16.745478873932
C      9.901085492523  14.034780627039  15.303713791432
H      8.074687932410  14.554942420531  16.132246026817
C      7.933972406697  10.711989314487  24.421238826343
H      6.029506877603  11.456376831039  24.884359191895
H      9.756298419730  10.178716724930  23.575240084737
H     12.151072873770  12.154155171107  16.898842209674
C     11.121747154647  13.316390912144  15.527647342821
C      9.691348247173  14.712707089501  14.055543314762
H      8.060426595631  10.242476661488  25.267190054616
C     12.128021299469  13.286232799372  14.511536639751
C     10.681505112978  14.668726261398  13.066203064770
H      8.854491545570  15.182344979640  13.901464474422
C     11.906083236042  13.951727366004  13.294369719931
H     12.955853577820  12.809822232142  14.669776804527
H     10.554172325381  15.138035043767  12.223770664920
H     12.588678014525  13.917692951932  12.604331927371
C     13.824055218602  17.099820337299  17.930477185820
C     14.836905485041  17.667716980311  17.108121159082
C     12.611457271620  16.617169552909  17.339205120515
C     14.024863410075  17.005388655833  19.330278731545
C     14.644064084695  17.782060333894  15.717198574025
H     15.664606770112  17.980886992530  17.508691954068
C     12.420127604158  16.728197036687  15.925557783413
C     11.601162224367  16.051368189374  18.155643471779
C     13.016426637069  16.436483306928  20.141550775487
H     14.843102794280  17.322493937471  19.738195221476
C     15.656635192316  18.361737546188  14.894307198945
C     13.425566093875  17.299982571079  15.129978296397
H     11.595678692122  16.394077951457  15.517505023338
H     10.772822099498  15.720875988109  17.750292368068
C     11.804087029882  15.952823299395  19.552323430825
C     13.209955184144  16.326708587728  21.553920131966
C     15.450334679654  18.465387998507  13.511523859821
H     16.476454761149  18.674413150068  15.287940583159
C     13.232978725926  17.411695585901  13.713522338941
C     10.793360533912  15.376415243508  20.376768206762
C     12.213577646635  15.751885314374  22.353912600063
H     14.033724877572  16.641834760179  21.952129866375
C     14.236651354348  17.975077775659  12.916174621960
H     16.127382472760  18.874361841414  12.948023907855
H     12.405192555510  17.082284587247  13.308205060238
H      9.973131870044  15.046281056216  19.968543543045
C     10.986501484186  15.275500480240  21.766804254862
C     12.393851276422  15.642524715759  23.768289503765
H     14.104812801141  18.055348414444  11.955421636559
C      9.976696779889  14.695607138866  22.591644245619
C     11.396680085208  15.073542815930  24.569982493699
H     13.218778931847  15.962802812192  24.175030933006
C     10.176232470018  14.596123187268  23.975456141053
H      9.160184074261  14.350102491096  22.178335068962
H     11.530320799632  14.992890890115  25.538460630338
H      9.505316079120  14.181601381329  24.539418890036
