322
title
O       52.623152    43.534218    29.605116
C       51.993344    42.407892    30.045616
C       53.021705    34.294181    36.560161
C       51.468895    42.268558    31.344171
C       50.614580    33.787867    35.113882
H       53.138997    35.018460    35.745853
H       52.236684    34.650689    37.243850
H       53.965634    34.226119    37.109284
C       50.799561    41.094133    31.697754
H       48.735863    40.288112    27.445221
C       50.788355    29.354097    24.248863
H       50.795492    34.820446    35.393311
C       48.638656    39.053765    31.782146
H       50.393859    40.991330    32.701066
H       52.376665    37.951795    30.567268
N       49.904503    38.875302    31.139018
C       50.241638    37.603944    30.602190
C       50.639778    40.045884    30.771986
C       49.217399    36.677780    30.298130
C       51.584413    37.247037    30.341614
C       47.590513    38.716282    26.518137
C       51.180187    40.190890    29.477700
C       49.548401    35.460462    29.719290
H       48.482753    36.023808    26.834171
C       51.909720    36.019942    29.759375
H       48.859572    37.339462    33.086159
C       48.627049    39.641964    26.578476
H       51.048481    39.394190    28.753112
C       51.851476    41.356787    29.118149
H       51.713490    29.143798    27.527076
C       50.888362    35.116063    29.434108
C       48.590230    34.378911    29.229955
H       52.948941    35.780003    29.552209
C       49.548777    39.738554    25.518640
H       45.862890    41.047799    31.640324
H       52.244794    41.471923    28.112508
C       46.431699    33.674234    30.060816
C       47.813178    33.661242    30.341757
C       47.446660    34.881985    28.343545
C       49.558352    33.435158    28.512950
O       50.561273    40.644649    25.664956
C       45.537593    33.040919    30.932123
C       48.312902    33.033966    31.478690
C       47.522884    35.673164    27.204114
C       46.203116    34.429918    28.833858
C       49.234618    32.342057    27.726362
C       50.896772    33.845809    28.703234
C       52.693629    44.658447    30.465475
C       46.024049    32.391808    32.062029
H       44.471986    33.067824    30.735144
C       47.408896    32.387371    32.357900
H       48.196003    32.059955    27.583218
C       46.328855    36.031794    26.530960
H       48.178172    36.945616    30.453623
C       45.020686    34.774365    28.165235
H       49.379036    33.027628    31.691093
C       50.268499    31.632452    27.062040
C       51.928313    33.082942    28.134229
H       53.288217    44.438191    31.363471
H       53.170934    45.465022    29.905362
H       51.689684    44.980232    30.777456
H       45.328629    31.919449    32.749408
N       47.884496    31.747923    33.516638
N       46.413396    36.873954    25.389710
C       45.086302    35.576238    27.025136
H       44.054064    34.460570    28.553488
N       49.910195    30.643267    26.133118
C       51.616042    31.988340    27.321216
H       52.969944    33.355596    28.291098
C       49.134101    32.120092    34.120548
C       47.135091    30.701960    34.140974
C       47.449356    37.873425    25.397814
C       45.550898    36.745466    24.280161
H       48.254039    37.351899    23.459830
C       48.607525    30.701779    25.519660
C       50.811055    29.655689    25.625021
H       45.941087    38.735359    23.514029
C       49.422135    33.454021    34.462163
C       46.555466    29.669965    33.380766
C       50.087696    31.123281    34.407816
C       46.977483    30.692887    35.541744
C       45.385011    37.813767    23.371924
C       44.842929    35.546471    24.031512
C       48.209073    38.156263    32.783057
C       47.780950    40.107369    31.408934
C       48.117105    31.891113    24.952048
C       51.688241    28.935558    26.462461
C       48.355031    37.994615    24.331117
C       47.818211    29.539430    25.460743
C       46.865845    31.921502    24.330444
H       47.419646    31.484828    36.139312
C       46.578060    29.553149    24.829741
H       44.982125    34.685033    24.678410
H       50.114503    29.897210    23.591305
C       45.834011    28.642125    33.997575
H       46.670046    29.668137    32.300079
C       46.249275    29.683526    36.157824
C       43.963876    35.447890    22.956219
H       44.170429    35.883560    26.529755
C       44.515960    37.713302    22.282703
H       46.885812    38.635206    27.341017
C       46.508789    40.241114    31.973860
H       48.703070    34.236101    34.232994
C       46.949005    38.291279    33.359742
H       48.101246    40.811573    30.645274
C       51.288484    31.451922    35.025687
H       49.882133    30.089576    34.141814
C       52.512613    27.943798    25.931787
H       52.420164    31.435107    26.841956
C       49.397093    38.924302    24.382277
H       48.712367    32.799270    24.998990
C       51.618476    28.370742    23.707764
H       48.183649    28.636419    25.932083
C       46.096230    30.745754    24.257186
H       46.509768    32.852438    23.900259
H       45.979630    28.648196    24.780902
C       45.687437    28.644250    35.396587
H       45.408307    27.854099    33.384503
H       46.122719    29.675836    37.234844
H       43.416047    34.527338    22.782362
C       43.783285    36.532381    22.083151
H       44.422262    38.557678    21.607440
C       46.074385    39.312623    32.940500
H       51.596949    43.049669    32.085600
H       46.606052    37.601754    34.122917
C       51.553950    32.781169    35.408303
H       53.174316    27.379768    26.581515
H       52.030798    30.687126    35.206636
C       52.485188    27.653330    24.552936
H       50.094167    38.981364    23.552393
H       51.574023    28.170262    22.642769
O       44.875834    30.681816    23.643599
O       45.021385    27.671847    36.091928
O       42.884679    36.351991    21.055545
O       44.858486    39.351298    33.545424
O       52.726549    32.999531    36.067223
O       53.310488    26.663810    24.107165
C       42.652164    37.427293    20.170339
C       44.515171    26.562352    35.374886
C       44.381117    31.823890    22.959925
C       43.891767    40.279679    33.090069
C       51.561593    40.725100    24.658262
C       53.420790    26.442751    22.710580
H       43.568687    37.716924    19.630475
H       43.444657    31.536039    22.475100
H       45.091130    32.166943    22.196304
H       45.308075    26.081752    34.781701
H       43.700426    26.867710    34.703395
H       44.132686    25.841477    36.099428
H       42.258905    38.311285    20.696788
H       44.182437    32.646702    23.662757
H       41.908988    37.084514    19.447009
H       44.234598    41.317836    33.227055
H       42.985837    40.123089    33.676535
H       43.667745    40.121257    32.024599
H       51.141612    41.088704    23.707883
H       52.315339    41.430922    25.009701
H       52.033956    39.748022    24.488136
H       53.805365    27.328755    22.194381
H       52.456355    26.191074    22.262828
H       54.115878    25.610468    22.564718
O       53.305907    30.404195    12.255042
C       48.615743    30.017046    20.282328
C       45.470253    25.096796    15.333809
C       46.695310    27.486847    14.455706
C       51.215472    31.464260    12.441181
H       44.875380    25.317358    14.436138
H       44.993164    24.290081    15.893901
H       46.474106    24.775114    15.021444
C       47.364680    28.661316    14.102421
H       46.566952    26.706059    13.713997
C       50.383618    29.647791    14.391675
H       51.558382    32.153902    11.678095
C       49.525944    30.701519    14.018757
H       47.770070    28.764492    13.099031
H       50.063363    28.943420    15.155205
N       48.260096    30.879900    14.661853
C       47.922917    32.151161    15.198725
C       47.524683    29.709247    15.028521
C       48.947096    33.077396    15.502839
C       46.580103    32.508049    15.459186
C       46.984463    29.563904    16.322819
C       50.573911    31.039467    19.282756
C       48.615990    34.294738    16.081571
H       49.986347    32.809610    15.347470
C       46.254704    33.735152    16.041315
H       49.304895    32.415992    12.715032
C       46.313093    28.397945    16.682087
H       47.116266    30.360412    17.047606
C       49.537417    30.113735    19.222451
H       51.278514    31.120657    18.459807
C       47.275996    34.639097    16.366620
C       49.574066    35.376430    16.570820
H       45.215445    33.975091    16.248296
C       46.171002    27.347162    15.754296
H       45.919827    28.282585    17.687724
H       52.301569    28.707223    14.159773
C       51.732556    36.081148    15.739908
C       50.351074    36.094054    15.458958
C       48.605857    36.320164    17.287695
C       50.717652    34.873597    17.457341
O       45.541073    26.220801    16.194546
C       52.626633    36.714359    14.868510
C       49.851312    36.721212    14.321985
C       48.929512    37.413300    18.074278
C       47.267480    35.909391    17.097436
C       50.641479    34.082565    18.596879
C       51.961175    35.325647    16.966967
C       46.602819    29.030527    21.142598
C       52.140155    37.363373    13.738557
H       53.692245    36.687430    15.065444
C       50.755293    37.367798    13.442730
H       48.785184    36.727516    14.109599
C       47.895599    38.122764    18.738633
H       49.681633    33.731880    18.966849
C       46.235902    36.672137    17.666497
H       49.968097    37.695534    18.217376
C       51.835537    33.723951    19.269975
C       53.143624    34.981288    17.635594
H       47.022568    28.666792    22.093037
H       45.849003    28.324845    20.791008
H       46.130554    30.007655    21.312720
H       51.494266    40.086949    13.500534
N       48.253906    39.111891    19.667744
N       50.279675    38.007278    12.284037
C       46.548102    37.766716    18.479606
H       45.194285    36.399379    17.509668
N       51.751029    32.881796    20.411270
C       53.078063    34.179485    18.775745
H       54.110240    35.294992    17.247233
C       47.353166    40.099580    20.175639
C       51.029165    39.053181    11.659652
C       49.556568    39.053299    20.281198
C       49.030081    37.635131    11.680087
H       49.910460    32.403698    22.341150
C       52.613629    33.010182    21.520721
C       50.715121    31.882252    20.403134
H       53.993965    33.872087    19.271032
C       48.742025    36.301190    11.338562
C       46.475799    40.819494    19.338188
C       48.076564    38.631969    11.392659
C       51.186725    39.062251    10.258883
C       47.375898    40.401358    21.551774
C       50.047022    37.863936    20.848731
C       49.955461    31.599188    13.017970
C       49.809469    31.761004    21.469843
C       51.608881    40.085131    12.419850
C       50.345944    40.215613    20.340064
C       52.779465    31.941851    22.428950
C       53.321780    34.209081    21.769371
C       45.651466    41.811342    19.868811
H       46.450371    40.611043    18.273617
C       46.545771    41.384732    22.092809
H       48.049807    39.858347    22.209353
H       50.744357    38.270433     9.661287
C       52.330367    41.112930    11.803039
H       52.835567    37.835722    13.051160
C       51.914967    40.071580     9.642784
C       54.200867    34.307551    22.844663
H       45.743950    38.319811    18.958994
C       53.648555    32.042202    23.518142
H       49.451802    36.955758    20.801698
C       46.875809    38.303305    10.774762
H       48.282141    39.665676    11.658603
C       48.767428    30.831281    21.418695
H       45.787903    31.803304    15.233359
C       51.586109    40.201882    20.971038
H       49.460971    35.519059    11.567981
C       47.549642    35.967332    10.686716
H       49.980578    41.118593    19.868617
C       51.655731    29.514115    13.826601
H       53.182690    35.070559    21.122500
C       51.298312    37.833528    21.470282
H       52.223324    31.020301    22.286832
C       45.678995    42.102011    21.247606
H       44.989542    42.375114    19.219075
H       52.184594    41.106806    21.019778
C       52.476858    41.110841    10.404007
H       52.041389    40.079329     8.565749
H       52.756067    41.900968    12.416099
H       46.590132    41.585197    23.157810
C       54.381338    33.223048    23.717733
H       48.070375    30.774167    22.248594
C       46.610338    36.974047    10.392224
H       46.133489    39.068092    10.593836
H       47.368727    34.934733    10.407389
C       52.090091    30.442792    12.860121
H       51.654462    36.902555    21.900326
H       53.742240    31.197765    24.193327
C       52.067920    39.009275    21.543597
H       49.428555    29.467662    18.355656
H       54.748840    35.228031    23.018469
O       44.853730    43.091672    21.693349
O       53.142890    42.083185     9.708652
O       55.279920    33.403322    24.745432
O       47.603290    29.110883    20.136061
O       45.437738    36.755666     9.733188
O       53.288312    39.073215    22.157222
C       44.743239    43.312484    23.089987
C       53.648856    43.192892    10.425588
C       55.512135    32.327913    25.630652
C       45.142553    35.460909     9.240589
C       54.272628    29.475685    12.710135
C       53.783179    37.931034    22.840602
H       44.048039    44.144665    23.235906
H       44.358706    42.426351    23.605994
H       45.707583    43.564187    23.537902
H       54.463652    42.887747    11.097109
H       52.855849    43.673400    11.018665
H       54.031241    43.913718     9.700945
H       55.905324    31.443905    25.104191
H       54.595484    32.038427    26.170345
H       56.255250    32.670522    26.354113
H       45.024898    34.736906    10.055069
H       45.927665    35.104073     8.557179
H       44.198760    35.528917     8.691169
H       54.496702    29.633940    13.775632
H       53.929678    28.437582    12.573059
H       55.178526    29.632301    12.123653
H       53.982032    37.108457    22.137546
H       54.719568    38.218900    23.325561
H       53.073190    37.587635    23.604094
