72
frame=7 time_fs=7.000000
C         8.2015945040        12.5755438742        19.8573394714
C         7.2425050971        12.5451793401        20.9173750069
C         9.4751043015        11.9066995049        20.0778487288
C         7.9522301581        13.2185616347        18.6450957031
C         7.4593469721        11.9179100780        22.1301759226
H         6.2771952201        13.0677210373        20.7593611365
C         9.6910372792        11.2272794279        21.3236222745
C        10.4572714204        11.9630713170        19.0645328301
C         8.9219962051        13.2388117228        17.6301204741
H         6.9910186453        13.7510260063        18.4980754009
C         6.4771425081        11.9397912352        23.1365355531
C         8.7234417857        11.2132457727        22.3799031209
H        10.6215632924        10.7181526696        21.4981184225
H        11.4485890801        11.5092575888        19.2086967425
C        10.2201789528        12.6147288997        17.8261031333
C         8.7209326036        13.9101834419        16.3789591514
C         6.6829231900        11.3959941622        24.3470271331
H         5.5156418237        12.4556067905        22.9235114501
C         8.9075830437        10.6015473678        23.6770028629
C        11.2035310193        12.6699248482        16.7869091503
C         9.6894415363        13.9618578554        15.3645915361
H         7.7571579100        14.4326343000        16.2547909772
C         7.9343615724        10.7071227657        24.6354195546
H         5.9555011287        11.4179903825        25.1404171642
H         9.8144837860        10.0539673446        23.8863166870
H        12.1424334210        12.1807403338        16.9552171266
C        10.9501349246        13.2898623733        15.5471128274
C         9.4588682991        14.6462387649        14.0918326765
H         8.0588123576        10.2525318572        25.6393123947
C        11.8422924562        13.2447566472        14.4145562794
C        10.3813187028        14.6402665887        13.0893034344
H         8.5174284543        15.2151952828        13.9925100471
C        11.5650510577        13.8739910651        13.2307986914
H        12.7739166151        12.6744446057        14.5170845250
H        10.1956937370        15.1806491151        12.1658477430
H        12.2798257717        13.7924103511        12.3835621794
C        13.8123344272        17.0575122182        18.0731657136
C        14.7672850967        17.6003696096        17.1853876432
C        12.5825869442        16.6311440561        17.5151119245
C        13.9420962807        16.9041533548        19.4760285879
C        14.6324019281        17.7449352333        15.8019118840
H        15.6698245456        17.9305056955        17.6837600434
C        12.4691186247        16.8026253503        16.0847419152
C        11.6326849184        16.1168152366        18.3998499079
C        12.9998398920        16.3877281672        20.3592142294
H        14.8797905203        17.2342692543        19.8698894188
C        15.6321343305        18.3094365906        14.9371918439
C        13.4430213903        17.2981373234        15.2119432376
H        11.5017694064        16.4913232694        15.6565509122
H        10.6855161448        15.7824460415        17.9618068833
C        11.8015379303        15.9453622035        19.7878979095
C        13.1152168452        16.2346690735        21.7913172497
C        15.4625394647        18.4155388561        13.5449864325
H        16.5646739471        18.6741703198        15.3463076132
C        13.2880476069        17.4216120913        13.8107982345
C        10.8874124394        15.2891555929        20.6928607477
C        12.1922526950        15.7067638230        22.6790125554
H        14.0649896774        16.5821473820        22.1847521454
C        14.2548447244        17.9804814149        12.9710711007
H        16.2387144482        18.8221636113        12.9204928142
H        12.3439158923        17.0997302654        13.3553615117
H        10.0117190176        14.8242796624        20.2055525685
C        11.0365048858        15.1700865287        22.0934768646
C        12.3590709076        15.5750751680        24.0894312369
H        14.0840861069        18.0950176004        11.8945250264
C        10.1393138503        14.4727660724        22.9833341445
C        11.4707387178        14.9617255073        24.9565302561
H        13.2828697695        15.9146585362        24.5266062420
C        10.3083788203        14.3797375939        24.3650617527
H         9.3123819299        13.9791697983        22.5471260728
H        11.6484465381        14.8117387989        26.0275573412
H         9.6166772764        13.7955846783        24.9669182293
