 1296
Geometry Step: 0
    C      7.78400000      9.43800000      5.67800000      3.95828703
    C      6.80000000      9.44300000      6.69700000      4.16628897
    C      9.02800000      8.70900000      5.91000000      3.95438179
    C      7.61300000     10.11800000      4.46500000      4.16626223
    C      6.99500000      8.78400000      7.89800000      3.94899279
    H      5.98500000      9.91000000      6.55200000      0.88131689
    C      9.19900000      8.03200000      7.13400000      4.16601845
    C     10.00400000      8.70400000      4.90600000      4.16501710
    C      8.58900000     10.11300000      3.46100000      3.95405163
    H      6.80000000     10.59000000      4.33400000      0.88118382
    C      6.01100000      8.80000000      8.93500000      4.12231998
    C      8.22600000      8.05900000      8.12400000      3.95034650
    H     10.00000000      7.54400000      7.28600000      0.88093768
    H     10.81800000      8.23100000      5.03700000      0.88076596
    C      9.83300000      9.38400000      3.69300000      3.95864473
    C      8.41900000     10.79000000      2.23700000      4.16725095
    C      6.22200000      8.15700000     10.10700000      4.12234493
    H      5.19600000      9.26900000      8.79900000      0.88233778
    C      8.39800000      7.39900000      9.37800000      4.12580372
    C     10.81800000      9.37900000      2.67400000      4.16606749
    C      9.39100000     10.76200000      1.24700000      3.94977038
    H      7.61800000     11.27700000      2.08500000      0.88154514
    C      7.44000000      7.44200000     10.33600000      4.12418070
    H      5.55600000      8.18000000     10.78300000      0.89563615
    H      9.20000000      6.91800000      9.54400000      0.88552658
    H     11.63200000      8.91100000      2.81900000      0.88053395
    C     10.62200000     10.03800000      1.47400000      3.94885849
    C      9.22000000     11.42200000     -0.00700000      4.12653016
    H      7.57900000      6.99700000     11.16400000      0.89368364
    C     11.60600000     10.02100000      0.43600000      4.12339487
    C     10.17700000     11.37900000     -0.96500000      4.11928786
    H      8.41700000     11.90300000     -0.17200000      0.88608167
    C     11.39500000     10.66500000     -0.73600000      4.11696644
    H     12.42100000      9.55200000      0.57300000      0.88195149
    H     10.03900000     11.82400000     -1.79300000      0.89496192
    H     12.06200000     10.64100000     -1.41200000      0.89402183
    C      7.04800000      1.75900000      5.67800000      3.95719198
    C      6.06400000      1.76400000      6.69700000      4.16816283
    C      8.29200000      1.03000000      5.91000000      3.94914520
    C      6.87700000      2.43900000      4.46500000      4.16749191
    C      6.25900000      1.10500000      7.89800000      3.94761887
    H      5.24900000      2.23200000      6.55200000      0.88236319
    C      8.46200000      0.35300000      7.13400000      4.16616659
    C      9.26800000      1.02500000      4.90600000      4.16470394
    C      7.85300000      2.43400000      3.46100000      3.95302592
    H      6.06400000      2.91200000      4.33400000      0.88224679
    C      5.27500000      1.12200000      8.93500000      4.12582733
    C      7.49000000      0.38100000      8.12400000      3.94519632
    H      9.26400000     -0.13400000      7.28600000      0.88875993
    H     10.08100000      0.55200000      5.03700000      0.88812612
    C      9.09700000      1.70500000      3.69300000      3.95301135
    C      7.68300000      3.11100000      2.23700000      4.16768492
    C      5.48600000      0.47800000     10.10700000      4.11412988
    H      4.46000000      1.59100000      8.79900000      0.88329497
    C      7.66200000     -0.27900000      9.37800000      4.12759858
    C     10.08200000      1.70000000      2.67400000      4.16546975
    C      8.65500000      3.08400000      1.24700000      3.94877872
    H      6.88100000      3.59800000      2.08500000      0.88271396
    C      6.70400000     -0.23600000     10.33600000      4.11163056
    H      4.82000000      0.50100000     10.78300000      0.89406121
    H      8.46400000     -0.76000000      9.54400000      0.89414705
    H     10.89600000      1.23200000      2.81900000      0.88787250
    C      9.88600000      2.35900000      1.47400000      3.94471572
    C      8.48300000      3.74400000     -0.00700000      4.12572735
    H      6.84200000     -0.68100000     11.16400000      0.89457925
    C     10.87000000      2.34300000      0.43600000      4.12569067
    C      9.44100000      3.70100000     -0.96500000      4.11666129
    H      7.68100000      4.22500000     -0.17200000      0.88640576
    C     10.65900000      2.98600000     -0.73600000      4.11212043
    H     11.68500000      1.87400000      0.57300000      0.89031194
    H      9.30300000      4.14600000     -1.79300000      0.89443725
    H     11.32500000      2.96300000     -1.41200000      0.89370529
    C      9.59800000      4.98200000     17.75000000      3.95293783
    C     10.58300000      4.97700000     16.73100000      4.16541680
    C      8.35400000      5.71100000     17.51800000      3.95277895
    C      9.76900000      4.30200000     18.96300000      4.16412769
    C     10.38700000      5.63600000     15.53000000      3.94449636
    H     11.39700000      4.50900000     16.87600000      0.88774280
    C      8.18400000      6.38800000     16.29400000      4.16778758
    C      7.37900000      5.71600000     18.52200000      4.16688046
    C      8.79300000      4.30700000     19.96700000      3.94896303
    H     10.58300000      3.82900000     19.09400000      0.88817065
    C     11.37100000      5.61900000     14.49300000      4.12638727
    C      9.15700000      6.36100000     15.30400000      3.94857616
    H      7.38300000      6.87500000     16.14200000      0.88222062
    H      6.56500000      6.18900000     18.39100000      0.88236656
    C      7.54900000      5.03600000     19.73500000      3.95718016
    C      8.96400000      3.63000000     21.19100000      4.16596659
    C     11.16000000      6.26300000     13.32100000      4.11591926
    H     12.18600000      5.15100000     14.62900000      0.88996280
    C      8.98500000      7.02000000     14.05000000      4.12587711
    C      6.56500000      5.04100000     20.75400000      4.16765628
    C      7.99100000      3.65700000     22.18100000      3.94536293
    H      9.76500000      3.14300000     21.34300000      0.88840286
    C      9.94200000      6.97700000     13.09200000      4.11866982
    H     11.82700000      6.24000000     12.64500000      0.89377455
    H      8.18200000      7.50200000     13.88400000      0.88629437
    H      5.75100000      5.50900000     20.60900000      0.88213321
    C      6.76000000      4.38200000     21.95400000      3.94770148
    C      8.16300000      2.99800000     23.43500000      4.12678433
    H      9.80400000      7.42200000     12.26400000      0.89137801
    C      5.77600000      4.39900000     22.99200000      4.12583676
    C      7.20500000      3.04100000     24.39300000      4.11211345
    H      8.96600000      2.51600000     23.60000000      0.89432571
    C      5.98700000      3.75500000     24.16400000      4.11450295
    H      4.96200000      4.86700000     22.85500000      0.88302787
    H      7.34400000      2.59600000     25.22100000      0.89485714
    H      5.32100000      3.77800000     24.84000000      0.89448590
    C      9.02100000     20.39300000     19.73500000      3.95844197
    C      8.03700000     20.39800000     20.75400000      4.16783810
    C     10.26600000     19.66400000     19.96700000      3.95458506
    C      8.85100000     21.07300000     18.52200000      4.16748878
    C      8.23300000     19.73900000     21.95400000      3.94855727
    H      7.22300000     20.86600000     20.60900000      0.88164040
    C     10.43600000     18.98700000     21.19100000      4.16626702
    C     11.24100000     19.65900000     18.96300000      4.16489786
    C      9.82700000     21.06800000     17.51800000      3.95405256
    H      8.03700000     21.54600000     18.39100000      0.88185641
    C      7.24800000     19.75600000     22.99200000      4.12484127
    C      9.46300000     19.01500000     22.18100000      3.95022949
    H     11.23700000     18.50000000     21.34300000      0.88106807
    H     12.05500000     19.18700000     19.09400000      0.88084857
    C     11.07100000     20.33900000     17.75000000      3.95878677
    C      9.65600000     21.74500000     16.29400000      4.16874601
    C      7.46000000     19.11200000     24.16400000      4.11660010
    H      6.43400000     20.22500000     22.85500000      0.88259259
    C      9.63500000     18.35500000     23.43500000      4.12582935
    C     12.05500000     20.33400000     16.73100000      4.16620630
    C     10.62900000     21.71800000     15.30400000      3.94986006
    H      8.85500000     22.23200000     16.14200000      0.88175033
    C      8.67800000     18.39800000     24.39300000      4.12001340
    H      6.79300000     19.13500000     24.84000000      0.89427527
    H     10.43800000     17.87400000     23.60000000      0.88592940
    H     12.86900000     19.86700000     16.87600000      0.88048035
    C     11.85900000     20.99300000     15.53000000      3.94913740
    C     10.45700000     22.37800000     14.05000000      4.12817720
    H      8.81600000     17.95300000     25.22100000      0.89509441
    C     12.84400000     20.97700000     14.49300000      4.12523029
    C     11.41500000     22.33500000     13.09200000      4.11779480
    H      9.65400000     22.85900000     13.88400000      0.88604014
    C     12.63200000     21.62000000     13.32100000      4.11896219
    H     13.65800000     20.50800000     14.62900000      0.88146247
    H     11.27600000     22.78000000     12.26400000      0.89217527
    H     13.29900000     21.59700000     12.64500000      0.89359440
    C     10.33500000     12.66000000     17.75000000      3.95882434
    C     11.31900000     12.65600000     16.73100000      4.16610549
    C      9.09000000     13.39000000     17.51800000      3.95415782
    C     10.50500000     11.98000000     18.96300000      4.16536192
    C     11.12300000     13.31500000     15.53000000      3.94873403
    H     12.13300000     12.18800000     16.87600000      0.88075920
    C      8.92000000     14.06600000     16.29400000      4.16724910
    C      8.11500000     13.39500000     18.52200000      4.16615139
    C      9.52900000     11.98600000     19.96700000      3.95429238
    H     11.31900000     11.50800000     19.09400000      0.88090676
    C     12.10800000     13.29800000     14.49300000      4.12379856
    C      9.89300000     14.03900000     15.30400000      3.94959566
    H      8.11900000     14.55400000     16.14200000      0.88154479
    H      7.30100000     13.86700000     18.39100000      0.88143386
    C      8.28500000     12.71500000     19.73500000      3.95843266
    C      9.70000000     11.30900000     21.19100000      4.16672740
    C     11.89600000     13.94200000     13.32100000      4.12068739
    H     12.92200000     12.82900000     14.62900000      0.88160998
    C      9.72100000     14.69900000     14.05000000      4.12712471
    C      7.30100000     12.72000000     20.75400000      4.16709555
    C      8.72700000     11.33600000     22.18100000      3.95012058
    H     10.50100000     10.82100000     21.34300000      0.88128263
    C     10.67800000     14.65600000     13.09200000      4.12181120
    H     12.56300000     13.91800000     12.64500000      0.89414619
    H      8.91800000     15.18000000     13.88400000      0.88588946
    H      6.48700000     13.18700000     20.60900000      0.88114499
    C      7.49700000     12.06000000     21.95400000      3.94886888
    C      8.89900000     10.67600000     23.43500000      4.12639637
    H     10.54000000     15.10100000     12.26400000      0.89240405
    C      6.51200000     12.07700000     22.99200000      4.12411010
    C      7.94100000     10.71900000     24.39300000      4.12022414
    H      9.70200000     10.19500000     23.60000000      0.88597591
    C      6.72400000     11.43400000     24.16400000      4.11677810
    H      5.69800000     12.54600000     22.85500000      0.88226166
    H      8.08000000     10.27400000     25.22100000      0.89513963
    H      6.05700000     11.45700000     24.84000000      0.89429294
    C     10.56900000     17.06200000      3.69300000      3.95881517
    C     11.55400000     17.05700000      2.67400000      4.16573436
    C      9.32500000     17.79100000      3.46100000      3.95373610
    C     10.74000000     16.38200000      4.90600000      4.16479292
    C     11.35800000     17.71700000      1.47400000      3.94922493
    H     12.36800000     16.59000000      2.81900000      0.88031947
    C      9.15500000     18.46800000      2.23700000      4.16817435
    C      8.35000000     17.79700000      4.46500000      4.16706621
    C      9.76400000     16.38700000      5.91000000      3.95427395
    H     11.55400000     15.91000000      5.03700000      0.88063898
    C     12.34200000     17.70000000      0.43600000      4.12274275
    C     10.12700000     18.44100000      1.24700000      3.94976652
    H      8.35400000     18.95600000      2.08500000      0.88211237
    H      7.53600000     18.26900000      4.33400000      0.88178399
    C      8.52000000     17.11600000      5.67800000      3.95818604
    C      9.93500000     15.71100000      7.13400000      4.16593547
    C     12.13100000     18.34300000     -0.73600000      4.11733348
    H     13.15700000     17.23100000      0.57300000      0.88184338
    C      9.95600000     19.10100000     -0.00700000      4.12724928
    C      7.53600000     17.12100000      6.69700000      4.16724362
    C      8.96200000     15.73800000      8.12400000      3.95003033
    H     10.73600000     15.22300000      7.28600000      0.88101120
    C     10.91300000     19.05800000     -0.96500000      4.11969119
    H     12.79800000     18.32000000     -1.41200000      0.89393984
    H      9.15300000     19.58200000     -0.17200000      0.88650705
    H      6.72100000     17.58900000      6.55200000      0.88175217
    C      7.73100000     16.46200000      7.89800000      3.94836686
    C      9.13400000     15.07800000      9.37800000      4.12647839
    H     10.77500000     19.50300000     -1.79300000      0.89503839
    C      6.74700000     16.47900000      8.93500000      4.12386916
    C      8.17600000     15.12100000     10.33600000      4.12235806
    H      9.93700000     14.59700000      9.54400000      0.88563319
    C      6.95800000     15.83500000     10.10700000      4.12027551
    H      5.93200000     16.94800000      8.79900000      0.88257127
    H      8.31500000     14.67600000     11.16400000      0.89256520
    H      6.29200000     15.85900000     10.78300000      0.89448563
    C     10.56200000      4.99800000      5.49200000      3.95680581
    C      9.57000000      4.42600000      6.32500000      4.16779373
    C     11.79300000      5.48600000      6.09700000      3.95299867
    C     10.38300000      5.10000000      4.10500000      4.16721468
    C      9.74900000      4.32500000      7.69900000      3.95235440
    H      8.76500000      4.10500000      5.93500000      0.88015957
    C     11.94900000      5.36600000      7.48900000      4.16614438
    C     12.77400000      6.04300000      5.26600000      4.16636964
    C     11.36400000      5.65700000      3.27400000      3.95272167
    H      9.56900000      4.78300000      3.73300000      0.88044808
    C      8.75300000      3.73900000      8.56200000      4.12772568
    C     10.97300000      4.80100000      8.29800000      3.94873141
    H     12.75100000      5.68400000      7.88900000      0.88141760
    H     13.58700000      6.36000000      5.63900000      0.88044343
    C     12.59500000      6.14500000      3.87900000      3.95658481
    C     11.20700000      5.77700000      1.88300000      4.16645622
    C      8.95100000      3.64200000      9.89800000      4.11448233
    H      7.94300000      3.41500000      8.18700000      0.88246934
    C     11.13700000      4.67600000      9.72100000      4.13425548
    C     13.58600000      6.71700000      3.04700000      4.16628426
    C     12.18300000      6.34200000      1.07300000      3.94965067
    H     10.40600000      5.45900000      1.48200000      0.88160212
    C     10.15800000      4.12500000     10.48300000      4.11439939
    H      8.28200000      3.25000000     10.44700000      0.88947411
    H     11.93700000      4.98200000     10.13300000      0.88971171
    H     14.39200000      7.03800000      3.43600000      0.88041102
    C     13.40800000      6.81800000      1.67200000      3.95313323
    C     12.01900000      6.46700000     -0.35000000      4.13193174
    H     10.27900000      4.06000000     11.42300000      0.89080408
    C     14.40400000      7.40400000      0.80900000      4.12538517
    C     12.99800000      7.01800000     -1.11100000      4.11608182
    H     11.22000000      6.16100000     -0.76100000      0.88930772
    C     14.20600000      7.50100000     -0.52700000      4.11593090
    H     15.21400000      7.72800000      1.18400000      0.88248729
    H     12.87700000      7.08300000     -2.05200000      0.89647733
    H     14.87400000      7.89300000     -1.07600000      0.88977634
    C     13.09600000      9.42200000     17.93600000      3.95720872
    C     14.08800000      9.99300000     17.10300000      4.16472310
    C     11.86500000      8.93400000     17.33100000      3.95232389
    C     13.27500000      9.32000000     19.32300000      4.16425216
    C     13.90900000     10.09500000     15.72900000      3.95295217
    H     14.89300000     10.31500000     17.49300000      0.87986775
    C     11.70900000      9.05300000     15.93900000      4.16822186
    C     10.88400000      8.37700000     18.16200000      4.16852590
    C     12.29400000      8.76300000     20.15400000      3.95315290
    H     14.08900000      9.63700000     19.69500000      0.87999907
    C     14.90500000     10.68000000     14.86600000      4.12401681
    C     12.68400000      9.61900000     15.13000000      3.94838633
    H     10.90700000      8.73600000     15.53900000      0.88197966
    H     10.07000000      8.05900000     17.78900000      0.88103090
    C     11.06300000      8.27500000     19.54900000      3.95605752
    C     12.45000000      8.64300000     21.54500000      4.16331665
    C     14.70700000     10.77800000     13.53000000      4.11728424
    H     15.71500000     11.00400000     15.24100000      0.88219694
    C     12.52100000      9.74400000     13.70700000      4.13507109
    C     10.07100000      7.70300000     20.38100000      4.16885993
    C     11.47500000      8.07800000     22.35500000      3.94997692
    H     13.25200000      8.96100000     21.94600000      0.88117907
    C     13.50000000     10.29500000     12.94500000      4.11658210
    H     15.37600000     11.16900000     12.98100000      0.89047035
    H     11.72100000      9.43800000     13.29500000      0.88990895
    H      9.26600000      7.38200000     19.99200000      0.88050472
    C     10.25000000      7.60200000     21.75600000      3.95249184
    C     11.63800000      7.95300000     23.77800000      4.12992175
    H     13.37900000     10.36000000     12.00500000      0.89028501
    C      9.25400000      7.01600000     22.61900000      4.12715342
    C     10.65900000      7.40200000     24.53900000      4.11652401
    H     12.43800000      8.25900000     24.18900000      0.88880247
    C      9.45200000      6.91900000     23.95500000      4.11574861
    H      8.44400000      6.69200000     22.24400000      0.88292162
    H     10.78100000      7.33700000     25.48000000      0.89634478
    H      8.78400000      6.52700000     24.50400000      0.89032201
    C     14.56800000     24.77900000     17.93600000      3.95161370
    C     15.56000000     25.35100000     17.10300000      4.16622513
    C     13.33700000     24.29100000     17.33100000      3.95218117
    C     14.74700000     24.67700000     19.32300000      4.16626973
    C     15.38100000     25.45200000     15.72900000      3.94703651
    H     16.36500000     25.67200000     17.49300000      0.88772516
    C     13.18100000     24.41100000     15.93900000      4.16591162
    C     12.35600000     23.73400000     18.16200000      4.16676166
    C     13.76600000     24.12000000     20.15400000      3.94757127
    H     15.56100000     24.99400000     19.69500000      0.88764383
    C     16.37700000     26.03800000     14.86600000      4.12577225
    C     14.15700000     24.97600000     15.13000000      3.94828711
    H     12.37900000     24.09300000     15.53900000      0.88214035
    H     11.54300000     23.41700000     17.78900000      0.88088699
    C     12.53500000     23.63200000     19.54900000      3.95531925
    C     13.92300000     24.00000000     21.54500000      4.16542931
    C     16.17900000     26.13500000     13.53000000      4.11083039
    H     17.18700000     26.36200000     15.24100000      0.89026327
    C     13.99300000     25.10100000     13.70700000      4.13225947
    C     11.54400000     23.06000000     20.38100000      4.16717439
    C     12.94700000     23.43500000     22.35500000      3.94511913
    H     14.72400000     24.31800000     21.94600000      0.88985122
    C     14.97200000     25.65200000     12.94500000      4.11299576
    H     16.84800000     26.52700000     12.98100000      0.89365056
    H     13.19300000     24.79500000     13.29500000      0.88996125
    H     10.73800000     22.73900000     19.99200000      0.88086019
    C     11.72200000     22.95900000     21.75600000      3.95144493
    C     13.11100000     23.31000000     23.77800000      4.12843349
    H     14.85100000     25.71700000     12.00500000      0.89563482
    C     10.72600000     22.37300000     22.61900000      4.12810354
    C     12.13200000     22.75900000     24.53900000      4.11009461
    H     13.91000000     23.61600000     24.18900000      0.89209652
    C     10.92400000     22.27600000     23.95500000      4.11392641
    H      9.91600000     22.04900000     22.24400000      0.88298006
    H     12.25300000     22.69400000     25.48000000      0.89660979
    H     10.25600000     21.88400000     24.50400000      0.89036719
    C     13.83200000     17.10100000     17.93600000      3.95692013
    C     14.82400000     17.67200000     17.10300000      4.16559339
    C     12.60100000     16.61300000     17.33100000      3.95261981
    C     14.01100000     16.99900000     19.32300000      4.16535475
    C     14.64500000     17.77300000     15.72900000      3.95262465
    H     15.62900000     17.99300000     17.49300000      0.88010276
    C     12.44500000     16.73200000     15.93900000      4.16702496
    C     11.62000000     16.05500000     18.16200000      4.16728779
    C     13.03000000     16.44100000     20.15400000      3.95284625
    H     14.82500000     17.31600000     19.69500000      0.88026204
    C     15.64100000     18.35900000     14.86600000      4.12439867
    C     13.42100000     17.29700000     15.13000000      3.94843188
    H     11.64300000     16.41400000     15.53900000      0.88160858
    H     10.80600000     15.73800000     17.78900000      0.88050284
    C     11.79900000     15.95300000     19.54900000      3.95618430
    C     13.18700000     16.32200000     21.54500000      4.16454404
    C     15.44300000     18.45600000     13.53000000      4.11667841
    H     16.45100000     18.68300000     15.24100000      0.88242797
    C     13.25700000     17.42300000     13.70700000      4.13464948
    C     10.80700000     15.38200000     20.38100000      4.16741794
    C     12.21100000     15.75700000     22.35500000      3.94992388
    H     13.98800000     16.63900000     21.94600000      0.88111948
    C     14.23600000     17.97400000     12.94500000      4.11755907
    H     16.11200000     18.84800000     12.98100000      0.89061324
    H     12.45700000     17.11600000     13.29500000      0.89007603
    H     10.00200000     15.06100000     19.99200000      0.88006846
    C     10.98600000     15.28100000     21.75600000      3.95277002
    C     12.37400000     15.63100000     23.77800000      4.13022050
    H     14.11500000     18.03800000     12.00500000      0.89121506
    C      9.99000000     14.69500000     22.61900000      4.12599729
    C     11.39600000     15.08000000     24.53900000      4.11662947
    H     13.17400000     15.93800000     24.18900000      0.88925934
    C     10.18800000     14.59800000     23.95500000      4.11624841
    H      9.18000000     14.37100000     22.24400000      0.88243883
    H     11.51700000     15.01500000     25.48000000      0.89672677
    H      9.52000000     14.20600000     24.50400000      0.89022430
    C     11.29800000     12.67600000      5.49200000      3.95688945
    C     10.30600000     12.10500000      6.32500000      4.16584815
    C     12.52900000     13.16400000      6.09700000      3.95278722
    C     11.11900000     12.77800000      4.10500000      4.16573654
    C     10.48500000     12.00400000      7.69900000      3.95275500
    H      9.50100000     11.78400000      5.93500000      0.87974652
    C     12.68500000     13.04500000      7.48900000      4.16609780
    C     13.51000000     13.72200000      5.26600000      4.16654848
    C     12.10000000     13.33600000      3.27400000      3.95274836
    H     10.30500000     12.46100000      3.73300000      0.87995280
    C      9.48900000     11.41800000      8.56200000      4.12435058
    C     11.70900000     12.48000000      8.29800000      3.94879317
    H     13.48700000     13.36300000      7.88900000      0.88146576
    H     14.32400000     14.03900000      5.63900000      0.88064509
    C     13.33100000     13.82400000      3.87900000      3.95628699
    C     11.94300000     13.45500000      1.88300000      4.16514750
    C      9.68700000     11.32100000      9.89800000      4.11862414
    H      8.67900000     11.09400000      8.18700000      0.88212850
    C     11.87300000     12.35400000      9.72100000      4.13330632
    C     14.32300000     14.39500000      3.04700000      4.16678457
    C     12.91900000     14.02000000      1.07300000      3.94976551
    H     11.14200000     13.13800000      1.48200000      0.88106784
    C     10.89400000     11.80300000     10.48300000      4.11860335
    H      9.01800000     10.92900000     10.44700000      0.89142396
    H     12.67300000     12.66100000     10.13300000      0.88953994
    H     15.12800000     14.71600000      3.43600000      0.88026825
    C     14.14400000     14.49600000      1.67200000      3.95281291
    C     12.75600000     14.14600000     -0.35000000      4.13123060
    H     11.01500000     11.73800000     11.42300000      0.89107634
    C     15.14000000     15.08200000      0.80900000      4.12558368
    C     13.73500000     14.69700000     -1.11100000      4.11631086
    H     11.95600000     13.83900000     -0.76100000      0.88943425
    C     14.94200000     15.17900000     -0.52700000      4.11555106
    H     15.95000000     15.40600000      1.18400000      0.88257048
    H     13.61300000     14.76200000     -2.05200000      0.89674205
    H     15.61000000     15.57100000     -1.07600000      0.88999599
    C     14.06700000     21.50200000      3.87900000      3.95123534
    C     15.05900000     22.07400000      3.04700000      4.16605274
    C     12.83600000     21.01400000      3.27400000      3.95190638
    C     14.24600000     21.40000000      5.26600000      4.16631373
    C     14.88000000     22.17500000      1.67200000      3.94740912
    H     15.86400000     22.39500000      3.43600000      0.88750184
    C     12.68000000     21.13400000      1.88300000      4.16514988
    C     11.85500000     20.45700000      4.10500000      4.16600127
    C     13.26500000     20.84300000      6.09700000      3.94756757
    H     15.06000000     21.71800000      5.63900000      0.88781839
    C     15.87600000     22.76100000      0.80900000      4.12487124
    C     13.65500000     21.69900000      1.07300000      3.94856805
    H     11.87800000     20.81600000      1.48200000      0.88229596
    H     11.04100000     20.14000000      3.73300000      0.88082187
    C     12.03400000     20.35500000      5.49200000      3.95581796
    C     13.42100000     20.72400000      7.48900000      4.16636131
    C     15.67800000     22.85800000     -0.52700000      4.11104367
    H     16.68600000     23.08500000      1.18400000      0.89008602
    C     13.49200000     21.82400000     -0.35000000      4.13215840
    C     11.04200000     19.78300000      6.32500000      4.16656133
    C     12.44600000     20.15800000      8.29800000      3.94449649
    H     14.22300000     21.04100000      7.88900000      0.89004076
    C     14.47100000     22.37500000     -1.11100000      4.11333528
    H     16.34700000     23.25000000     -1.07600000      0.89371178
    H     12.69200000     21.51800000     -0.76100000      0.89022544
    H     10.23700000     19.46200000      5.93500000      0.88049957
    C     11.22100000     19.68200000      7.69900000      3.95127728
    C     12.60900000     20.03300000      9.72100000      4.13133007
    H     14.34900000     22.44000000     -2.05200000      0.89684771
    C     10.22500000     19.09700000      8.56200000      4.12706803
    C     11.63000000     19.48200000     10.48300000      4.11175382
    H     13.40900000     20.33900000     10.13300000      0.89271171
    C     10.42300000     18.99900000      9.89800000      4.11603645
    H      9.41500000     18.77300000      8.18700000      0.88285038
    H     11.75200000     19.41700000     11.42300000      0.89064893
    H      9.75400000     18.60800000     10.44700000      0.89110802
    C      4.28700000      4.99800000      5.49200000      3.95600483
    C      3.29500000      4.42600000      6.32500000      4.16411141
    C      5.51700000      5.48600000      6.09700000      3.95345350
    C      4.10700000      5.10000000      4.10500000      4.16376535
    C      3.47300000      4.32500000      7.69900000      3.95183103
    H      2.48900000      4.10500000      5.93500000      0.88411525
    C      5.67400000      5.36600000      7.48900000      4.16665348
    C      6.49900000      6.04300000      5.26600000      4.16678758
    C      5.08800000      5.65700000      3.27400000      3.95219709
    H      3.29400000      4.78300000      3.73300000      0.88385121
    C      2.47700000      3.73900000      8.56200000      4.12471272
    C      4.69800000      4.80100000      8.29800000      3.94929208
    H      6.47500000      5.68400000      7.88900000      0.88099913
    H      7.31200000      6.36000000      5.63900000      0.87985549
    C      6.31900000      6.14500000      3.87900000      3.95711878
    C      4.93200000      5.77700000      1.88300000      4.16277498
    C      2.67500000      3.64200000      9.89800000      4.11271340
    H      1.66800000      3.41500000      8.18700000      0.88620192
    C      4.86200000      4.67600000      9.72100000      4.13494898
    C      7.31100000      6.71700000      3.04700000      4.16674361
    C      5.90800000      6.34200000      1.07300000      3.94934639
    H      4.13100000      5.45900000      1.48200000      0.88503209
    C      3.88300000      4.12500000     10.48300000      4.11490783
    H      2.00700000      3.25000000     10.44700000      0.88976507
    H      5.66200000      4.98200000     10.13300000      0.89005164
    H      8.11600000      7.03800000      3.43600000      0.87965617
    C      7.13300000      6.81800000      1.67200000      3.95350504
    C      5.74400000      6.46700000     -0.35000000      4.13001440
    H      4.00400000      4.06000000     11.42300000      0.89134110
    C      8.12900000      7.40400000      0.80900000      4.12585917
    C      6.72300000      7.01800000     -1.11100000      4.11592545
    H      4.94400000      6.16100000     -0.76100000      0.89041290
    C      7.93100000      7.50100000     -0.52700000      4.11629406
    H      8.93800000      7.72800000      1.18400000      0.88178033
    H      6.60200000      7.08300000     -2.05200000      0.89625803
    H      8.59900000      7.89300000     -1.07600000      0.88967414
    C      5.02300000     12.67600000      5.49200000      3.95670964
    C      4.03100000     12.10500000      6.32500000      4.16239174
    C      6.25400000     13.16400000      6.09700000      3.95326743
    C      4.84300000     12.77800000      4.10500000      4.16222173
    C      4.21000000     12.00400000      7.69900000      3.95235938
    H      3.22600000     11.78400000      5.93500000      0.88306895
    C      6.41000000     13.04500000      7.48900000      4.16784357
    C      7.23500000     13.72200000      5.26600000      4.16796345
    C      5.82500000     13.33600000      3.27400000      3.95269010
    H      4.03000000     12.46100000      3.73300000      0.88294531
    C      3.21400000     11.41800000      8.56200000      4.12290070
    C      5.43400000     12.48000000      8.29800000      3.94893650
    H      7.21100000     13.36300000      7.88900000      0.88126410
    H      8.04800000     14.03900000      5.63900000      0.88011756
    C      7.05500000     13.82400000      3.87900000      3.95657581
    C      5.66800000     13.45500000      1.88300000      4.16123353
    C      3.41200000     11.32100000      9.89800000      4.11402476
    H      2.40400000     11.09400000      8.18700000      0.88550954
    C      5.59800000     12.35400000      9.72100000      4.13666969
    C      8.04700000     14.39500000      3.04700000      4.16762980
    C      6.64400000     14.02000000      1.07300000      3.94989622
    H      4.86700000     13.13800000      1.48200000      0.88415501
    C      4.61900000     11.80300000     10.48300000      4.11681572
    H      2.74300000     10.92900000     10.44700000      0.89034834
    H      6.39800000     12.66100000     10.13300000      0.89001113
    H      8.85300000     14.71600000      3.43600000      0.88008944
    C      7.86900000     14.49600000      1.67200000      3.95332937
    C      6.48000000     14.14600000     -0.35000000      4.12900159
    H      4.74000000     11.73800000     11.42300000      0.88975653
    C      8.86500000     15.08200000      0.80900000      4.12633475
    C      7.45900000     14.69700000     -1.11100000      4.11684821
    H      5.68000000     13.83900000     -0.76100000      0.89013838
    C      8.66700000     15.17900000     -0.52700000      4.11643393
    H      9.67400000     15.40600000      1.18400000      0.88204715
    H      7.33800000     14.76200000     -2.05200000      0.89653663
    H      9.33500000     15.57100000     -1.07600000      0.89000342
    C      5.75900000     20.35500000      5.49200000      3.95479358
    C      4.76700000     19.78300000      6.32500000      4.16444715
    C      6.99000000     20.84300000      6.09700000      3.94749191
    C      5.58000000     20.45700000      4.10500000      4.16341037
    C      4.94600000     19.68200000      7.69900000      3.94999195
    H      3.96200000     19.46200000      5.93500000      0.88434640
    C      7.14600000     20.72400000      7.48900000      4.16744216
    C      7.97100000     21.40000000      5.26600000      4.16715491
    C      6.56100000     21.01400000      3.27400000      3.95085960
    H      4.76600000     20.14000000      3.73300000      0.88460960
    C      3.95000000     19.09700000      8.56200000      4.12663448
    C      6.17000000     20.15800000      8.29800000      3.94410944
    H      7.94800000     21.04100000      7.88900000      0.89024966
    H      8.78400000     21.71800000      5.63900000      0.88775238
    C      7.79100000     21.50200000      3.87900000      3.95100658
    C      6.40400000     21.13400000      1.88300000      4.16253176
    C      4.14800000     18.99900000      9.89800000      4.11091864
    H      3.14000000     18.77300000      8.18700000      0.88665891
    C      6.33400000     20.03300000      9.72100000      4.13410471
    C      8.78300000     22.07400000      3.04700000      4.16640017
    C      7.38000000     21.69900000      1.07300000      3.94808227
    H      5.60300000     20.81600000      1.48200000      0.88558207
    C      5.35500000     19.48200000     10.48300000      4.10967589
    H      3.47900000     18.60800000     10.44700000      0.89023169
    H      7.13400000     20.33900000     10.13300000      0.89326896
    H      9.58900000     22.39500000      3.43600000      0.88782552
    C      8.60500000     22.17500000      1.67200000      3.94745822
    C      7.21600000     21.82400000     -0.35000000      4.13039878
    H      5.47600000     19.41700000     11.42300000      0.88932719
    C      9.60100000     22.76100000      0.80900000      4.12536779
    C      8.19500000     22.37500000     -1.11100000      4.11339214
    H      6.41700000     21.51800000     -0.76100000      0.89108997
    C      9.40300000     22.85800000     -0.52700000      4.11183066
    H     10.41100000     23.08500000      1.18400000      0.89017007
    H      8.07400000     22.44000000     -2.05200000      0.89674825
    H     10.07100000     23.25000000     -1.07600000      0.89375470
    C      4.78800000      8.27500000     19.54900000      3.95568587
    C      3.79600000      7.70300000     20.38100000      4.16499104
    C      6.01900000      8.76300000     20.15400000      3.95366970
    C      4.60900000      8.37700000     18.16200000      4.16443512
    C      3.97500000      7.60200000     21.75600000      3.95179175
    H      2.99100000      7.38200000     19.99200000      0.88400961
    C      6.17500000      8.64300000     21.54500000      4.16427754
    C      7.00000000      9.32000000     19.32300000      4.16503074
    C      5.59000000      8.93400000     17.33100000      3.95201122
    H      3.79500000      8.05900000     17.78900000      0.88445629
    C      2.97900000      7.01600000     22.61900000      4.12412085
    C      5.19900000      8.07800000     22.35500000      3.95037869
    H      6.97700000      8.96100000     21.94600000      0.88091822
    H      7.81300000      9.63700000     19.69500000      0.87937269
    C      6.82100000      9.42200000     17.93600000      3.95758411
    C      5.43300000      9.05300000     15.93900000      4.16468857
    C      3.17700000      6.91900000     23.95500000      4.11399186
    H      2.16900000      6.69200000     22.24400000      0.88653055
    C      5.36300000      7.95300000     23.77800000      4.13079718
    C      7.81200000      9.99300000     17.10300000      4.16478153
    C      6.40900000      9.61900000     15.13000000      3.94842507
    H      4.63200000      8.73600000     15.53900000      0.88493748
    C      4.38400000      7.40200000     24.53900000      4.11637412
    H      2.50800000      6.52700000     24.50400000      0.89087094
    H      6.16300000      8.25900000     24.18900000      0.88887469
    H      8.61800000     10.31500000     17.49300000      0.87959661
    C      7.63400000     10.09500000     15.72900000      3.95346898
    C      6.24500000      9.74400000     13.70700000      4.13334657
    H      4.50500000      7.33700000     25.48000000      0.89636102
    C      8.63000000     10.68000000     14.86600000      4.12423611
    C      7.22400000     10.29500000     12.94500000      4.11717670
    H      5.44600000      9.43800000     13.29500000      0.89069664
    C      8.43200000     10.77800000     13.53000000      4.11841540
    H      9.44000000     11.00400000     15.24100000      0.88163980
    H      7.10300000     10.36000000     12.00500000      0.89011140
    H      9.10000000     11.16900000     12.98100000      0.89005090
    C      7.55700000     17.10100000     17.93600000      3.95744022
    C      8.54900000     17.67200000     17.10300000      4.16579087
    C      6.32600000     16.61300000     17.33100000      3.95242919
    C      7.73600000     16.99900000     19.32300000      4.16593672
    C      8.37000000     17.77300000     15.72900000      3.95330756
    H      9.35400000     17.99300000     17.49300000      0.87948824
    C      6.16900000     16.73200000     15.93900000      4.16295982
    C      5.34500000     16.05500000     18.16200000      4.16308858
    C      6.75500000     16.44100000     20.15400000      3.95342945
    H      8.55000000     17.31600000     19.69500000      0.87973528
    C      9.36600000     18.35900000     14.86600000      4.12421769
    C      7.14500000     17.29700000     15.13000000      3.94869040
    H      5.36800000     16.41400000     15.53900000      0.88445403
    H      4.53100000     15.73800000     17.78900000      0.88368596
    C      5.52400000     15.95300000     19.54900000      3.95604600
    C      6.91100000     16.32200000     21.54500000      4.16525248
    C      9.16800000     18.45600000     13.53000000      4.11819491
    H     10.17600000     18.68300000     15.24100000      0.88175204
    C      6.98200000     17.42300000     13.70700000      4.13217099
    C      4.53200000     15.38200000     20.38100000      4.16353241
    C      5.93500000     15.75700000     22.35500000      3.95023085
    H      7.71300000     16.63900000     21.94600000      0.88110509
    C      7.96000000     17.97400000     12.94500000      4.11845280
    H      9.83600000     18.84800000     12.98100000      0.89062545
    H      6.18200000     17.11600000     13.29500000      0.89116310
    H      3.72700000     15.06100000     19.99200000      0.88330407
    C      4.71100000     15.28100000     21.75600000      3.95231496
    C      6.09900000     15.63100000     23.77800000      4.13142038
    H      7.83900000     18.03800000     12.00500000      0.89137315
    C      3.71500000     14.69500000     22.61900000      4.12296186
    C      5.12000000     15.08000000     24.53900000      4.11652402
    H      6.89900000     15.93800000     24.18900000      0.88925842
    C      3.91300000     14.59800000     23.95500000      4.11439387
    H      2.90500000     14.37100000     22.24400000      0.88580518
    H      5.24100000     15.01500000     25.48000000      0.89682395
    H      3.24400000     14.20600000     24.50400000      0.89083799
    C     15.29700000     20.39300000     19.73500000      3.95857885
    C     14.31200000     20.39800000     20.75400000      4.16814937
    C     16.54100000     19.66400000     19.96700000      3.95377512
    C     15.12600000     21.07300000     18.52200000      4.16769541
    C     14.50800000     19.73900000     21.95400000      3.94875350
    H     13.49800000     20.86600000     20.60900000      0.88120728
    C     16.71100000     18.98700000     21.19100000      4.16224676
    C     17.51700000     19.65900000     18.96300000      4.16135336
    C     16.10200000     21.06800000     17.51800000      3.95433302
    H     14.31200000     21.54600000     18.39100000      0.88147971
    C     13.52400000     19.75600000     22.99200000      4.12455441
    C     15.73900000     19.01500000     22.18100000      3.94994559
    H     17.51200000     18.50000000     21.34300000      0.88436633
    H     18.33000000     19.18700000     19.09400000      0.88404900
    C     17.34600000     20.33900000     17.75000000      3.95806780
    C     15.93100000     21.74500000     16.29400000      4.16893444
    C     13.73500000     19.11200000     24.16400000      4.11725806
    H     12.70900000     20.22500000     22.85500000      0.88252936
    C     15.91000000     18.35500000     23.43500000      4.12412274
    C     18.33000000     20.33400000     16.73100000      4.16238873
    C     16.90400000     21.71800000     15.30400000      3.95034923
    H     15.13000000     22.23200000     16.14200000      0.88159602
    C     14.95300000     18.39800000     24.39300000      4.12014893
    H     13.06800000     19.13500000     24.84000000      0.89443694
    H     16.71300000     17.87400000     23.60000000      0.88730881
    H     19.14500000     19.86700000     16.87600000      0.88439585
    C     18.13500000     20.99300000     15.53000000      3.94862278
    C     16.73200000     22.37800000     14.05000000      4.12855292
    H     15.09100000     17.95300000     25.22100000      0.89523943
    C     19.11900000     20.97700000     14.49300000      4.12146031
    C     17.69000000     22.33500000     13.09200000      4.11843552
    H     15.93000000     22.85900000     13.88400000      0.88607356
    C     18.90800000     21.62000000     13.32100000      4.11778426
    H     19.93400000     20.50800000     14.62900000      0.88562229
    H     17.55100000     22.78000000     12.26400000      0.89270579
    H     19.57400000     21.59700000     12.64500000      0.89450674
    C     14.05900000      9.43800000      5.67800000      3.95869256
    C     13.07500000      9.44300000      6.69700000      4.16731994
    C     15.30300000      8.70900000      5.91000000      3.95395823
    C     13.88900000     10.11800000      4.46500000      4.16695066
    C     13.27100000      8.78400000      7.89800000      3.94901714
    H     12.26100000      9.91000000      6.55200000      0.88081901
    C     15.47400000      8.03200000      7.13400000      4.16199516
    C     16.27900000      8.70400000      4.90600000      4.16085816
    C     14.86500000     10.11300000      3.46100000      3.95454678
    H     13.07500000     10.59000000      4.33400000      0.88105231
    C     12.28600000      8.80000000      8.93500000      4.12383624
    C     14.50100000      8.05900000      8.12400000      3.94998679
    H     16.27500000      7.54400000      7.28600000      0.88399300
    H     17.09300000      8.23100000      5.03700000      0.88398071
    C     16.10900000      9.38400000      3.69300000      3.95839036
    C     14.69400000     10.79000000      2.23700000      4.16822364
    C     12.49800000      8.15700000     10.10700000      4.12185854
    H     11.47200000      9.26900000      8.79900000      0.88186882
    C     14.67300000      7.39900000      9.37800000      4.12429001
    C     17.09300000      9.37900000      2.67400000      4.16211983
    C     15.66700000     10.76200000      1.24700000      3.95020939
    H     13.89300000     11.27700000      2.08500000      0.88122481
    C     13.71500000      7.44200000     10.33600000      4.12354480
    H     11.83100000      8.18000000     10.78300000      0.89533892
    H     15.47600000      6.91800000      9.54400000      0.88697427
    H     17.90700000      8.91100000      2.81900000      0.88396262
    C     16.89700000     10.03800000      1.47400000      3.94872406
    C     15.49500000     11.42200000     -0.00700000      4.12759618
    H     13.85400000      6.99700000     11.16400000      0.89335127
    C     17.88200000     10.02100000      0.43600000      4.12061278
    C     16.45300000     11.37900000     -0.96500000      4.11978830
    H     14.69200000     11.90300000     -0.17200000      0.88608289
    C     17.67000000     10.66500000     -0.73600000      4.11525465
    H     18.69600000      9.55200000      0.57300000      0.88509426
    H     16.31400000     11.82400000     -1.79300000      0.89526564
    H     18.33700000     10.64100000     -1.41200000      0.89437339
    C     16.61000000     12.66000000     17.75000000      3.95850795
    C     17.59400000     12.65600000     16.73100000      4.16265207
    C     15.36600000     13.39000000     17.51800000      3.95477445
    C     16.78000000     11.98000000     18.96300000      4.16147567
    C     17.39900000     13.31500000     15.53000000      3.94867054
    H     18.40900000     12.18800000     16.87600000      0.88440768
    C     15.19500000     14.06600000     16.29400000      4.16810849
    C     14.39000000     13.39500000     18.52200000      4.16701975
    C     15.80500000     11.98600000     19.96700000      3.95381868
    H     17.59400000     11.50800000     19.09400000      0.88419642
    C     18.38300000     13.29800000     14.49300000      4.12143663
    C     16.16800000     14.03900000     15.30400000      3.95033325
    H     14.39400000     14.55400000     16.14200000      0.88116364
    H     13.57600000     13.86700000     18.39100000      0.88085897
    C     14.56100000     12.71500000     19.73500000      3.95906966
    C     15.97500000     11.30900000     21.19100000      4.16265284
    C     18.17200000     13.94200000     13.32100000      4.11755012
    H     19.19800000     12.82900000     14.62900000      0.88537371
    C     15.99600000     14.69900000     14.05000000      4.12929591
    C     13.57600000     12.72000000     20.75400000      4.16766814
    C     15.00300000     11.33600000     22.18100000      3.95010403
    H     16.77600000     10.82100000     21.34300000      0.88442492
    C     16.95400000     14.65600000     13.09200000      4.12117231
    H     18.83800000     13.91800000     12.64500000      0.89404864
    H     15.19300000     15.18000000     13.88400000      0.88582119
    H     12.76200000     13.18700000     20.60900000      0.88061693
    C     13.77200000     12.06000000     21.95400000      3.94921958
    C     15.17400000     10.67600000     23.43500000      4.12433326
    H     16.81500000     15.10100000     12.26400000      0.89129368
    C     12.78800000     12.07700000     22.99200000      4.12393575
    C     14.21700000     10.71900000     24.39300000      4.12038733
    H     15.97700000     10.19500000     23.60000000      0.88723846
    C     12.99900000     11.43400000     24.16400000      4.11768569
    H     11.97300000     12.54600000     22.85500000      0.88216704
    H     14.35500000     10.27400000     25.22100000      0.89512576
    H     12.33200000     11.45700000     24.84000000      0.89438210
    C     13.32300000      1.75900000      5.67800000      3.95781964
    C     12.33900000      1.76400000      6.69700000      4.16773313
    C     14.56700000      1.03000000      5.91000000      3.94818921
    C     13.15300000      2.43900000      4.46500000      4.16674098
    C     12.53400000      1.10500000      7.89800000      3.94787900
    H     11.52500000      2.23200000      6.55200000      0.88173457
    C     14.73800000      0.35300000      7.13400000      4.16322679
    C     15.54300000      1.02500000      4.90600000      4.16148111
    C     14.12800000      2.43400000      3.46100000      3.95365033
    H     12.33900000      2.91200000      4.33400000      0.88203724
    C     11.55000000      1.12200000      8.93500000      4.12561682
    C     13.76500000      0.38100000      8.12400000      3.94462247
    H     15.53900000     -0.13400000      7.28600000      0.89210110
    H     16.35700000      0.55200000      5.03700000      0.89221590
    C     15.37200000      1.70500000      3.69300000      3.95244443
    C     13.95800000      3.11100000      2.23700000      4.16765959
    C     11.76100000      0.47800000     10.10700000      4.11417850
    H     10.73600000      1.59100000      8.79900000      0.88267545
    C     13.93700000     -0.27900000      9.37800000      4.12605816
    C     16.35700000      1.70000000      2.67400000      4.16258126
    C     14.93100000      3.08400000      1.24700000      3.94965575
    H     13.15700000      3.59800000      2.08500000      0.88212222
    C     12.97900000     -0.23600000     10.33600000      4.11130410
    H     11.09500000      0.50100000     10.78300000      0.89402736
    H     14.74000000     -0.76000000      9.54400000      0.89570880
    H     17.17100000      1.23200000      2.81900000      0.89193563
    C     16.16100000      2.35900000      1.47400000      3.94408377
    C     14.75900000      3.74400000     -0.00700000      4.12553193
    H     13.11800000     -0.68100000     11.16400000      0.89474061
    C     17.14500000      2.34300000      0.43600000      4.12305860
    C     15.71600000      3.70100000     -0.96500000      4.11739602
    H     13.95600000      4.22500000     -0.17200000      0.88653640
    C     16.93400000      2.98600000     -0.73600000      4.11061914
    H     17.96000000      1.87400000      0.57300000      0.89422671
    H     15.57800000      4.14600000     -1.79300000      0.89470609
    H     17.60100000      2.96300000     -1.41200000      0.89430262
    C     13.82400000      5.03600000     19.73500000      3.95790703
    C     12.84000000      5.04100000     20.75400000      4.16758284
    C     15.06900000      4.30700000     19.96700000      3.94825484
    C     13.65400000      5.71600000     18.52200000      4.16705545
    C     13.03600000      4.38200000     21.95400000      3.94792990
    H     12.02600000      5.50900000     20.60900000      0.88172196
    C     15.23900000      3.63000000     21.19100000      4.16255288
    C     16.04400000      4.30200000     18.96300000      4.16060907
    C     14.63000000      5.71100000     17.51800000      3.95355031
    H     12.84000000      6.18900000     18.39100000      0.88195691
    C     12.05200000      4.39900000     22.99200000      4.12565263
    C     14.26600000      3.65700000     22.18100000      3.94482154
    H     16.04000000      3.14300000     21.34300000      0.89208818
    H     16.85800000      3.82900000     19.09400000      0.89216288
    C     15.87400000      4.98200000     17.75000000      3.95229757
    C     14.45900000      6.38800000     16.29400000      4.16815229
    C     12.26300000      3.75500000     24.16400000      4.11509602
    H     11.23700000      4.86700000     22.85500000      0.88287725
    C     14.43800000      2.99800000     23.43500000      4.12507871
    C     16.85800000      4.97700000     16.73100000      4.16214310
    C     15.43200000      6.36100000     15.30400000      3.94906131
    H     13.65800000      6.87500000     16.14200000      0.88190971
    C     13.48100000      3.04100000     24.39300000      4.11209026
    H     11.59600000      3.77800000     24.84000000      0.89481752
    H     15.24100000      2.51600000     23.60000000      0.89578069
    H     17.67200000      4.50900000     16.87600000      0.89172535
    C     16.66200000      5.63600000     15.53000000      3.94413533
    C     15.26000000      7.02000000     14.05000000      4.12777847
    H     13.61900000      2.59600000     25.22100000      0.89504262
    C     17.64700000      5.61900000     14.49300000      4.12434589
    C     16.21800000      6.97700000     13.09200000      4.11827848
    H     14.45700000      7.50200000     13.88400000      0.88630635
    C     17.43600000      6.26300000     13.32100000      4.11242269
    H     18.46100000      5.15100000     14.62900000      0.89327458
    H     16.07900000      7.42200000     12.26400000      0.89062087
    H     18.10200000      6.24000000     12.64500000      0.89370195
    C     14.79500000     17.11600000      5.67800000      3.95853176
    C     13.81100000     17.12100000      6.69700000      4.16803599
    C     16.04000000     16.38700000      5.91000000      3.95360010
    C     14.62500000     17.79700000      4.46500000      4.16781141
    C     14.00700000     16.46200000      7.89800000      3.94848216
    H     12.99700000     17.58900000      6.55200000      0.88133360
    C     16.21000000     15.71100000      7.13400000      4.16181853
    C     17.01500000     16.38200000      4.90600000      4.16041218
    C     15.60100000     17.79100000      3.46100000      3.95401130
    H     13.81100000     18.26900000      4.33400000      0.88151123
    C     13.02200000     16.47900000      8.93500000      4.12501326
    C     15.23700000     15.73800000      8.12400000      3.94966313
    H     17.01100000     15.22300000      7.28600000      0.88433547
    H     17.82900000     15.91000000      5.03700000      0.88417334
    C     16.84500000     17.06200000      3.69300000      3.95809507
    C     15.43000000     18.46800000      2.23700000      4.16899970
    C     13.23400000     15.83500000     10.10700000      4.12084456
    H     12.20800000     16.94800000      8.79900000      0.88211090
    C     15.40900000     15.07800000      9.37800000      4.12466940
    C     17.82900000     17.05700000      2.67400000      4.16181546
    C     16.40300000     18.44100000      1.24700000      3.94981132
    H     14.62900000     18.95600000      2.08500000      0.88194901
    C     14.45200000     15.12100000     10.33600000      4.12254645
    H     12.56700000     15.85900000     10.78300000      0.89444226
    H     16.21200000     14.59700000      9.54400000      0.88711909
    H     18.64300000     16.59000000      2.81900000      0.88401327
    C     17.63300000     17.71700000      1.47400000      3.94859806
    C     16.23100000     19.10100000     -0.00700000      4.12830811
    H     14.59000000     14.67600000     11.16400000      0.89254806
    C     18.61800000     17.70000000      0.43600000      4.11999428
    C     17.18900000     19.05800000     -0.96500000      4.11972660
    H     15.42800000     19.58200000     -0.17200000      0.88668584
    C     18.40600000     18.34300000     -0.73600000      4.11507848
    H     19.43200000     17.23100000      0.57300000      0.88526504
    H     17.05000000     19.50300000     -1.79300000      0.89543214
    H     19.07300000     18.32000000     -1.41200000      0.89437579
    C      6.26000000     23.63200000     19.54900000      3.95434907
    C      5.26800000     23.06000000     20.38100000      4.16540410
    C      7.49100000     24.12000000     20.15400000      3.94768423
    C      6.08100000     23.73400000     18.16200000      4.16411231
    C      5.44700000     22.95900000     21.75600000      3.95025259
    H      4.46300000     22.73900000     19.99200000      0.88449818
    C      7.64700000     24.00000000     21.54500000      4.16506634
    C      8.47200000     24.67700000     19.32300000      4.16608004
    C      7.06200000     24.29100000     17.33100000      3.95111604
    H      5.26700000     23.41700000     17.78900000      0.88490369
    C      4.45100000     22.37300000     22.61900000      4.12651664
    C      6.67100000     23.43500000     22.35500000      3.94523782
    H      8.44900000     24.31800000     21.94600000      0.89009011
    H      9.28600000     24.99400000     19.69500000      0.88756132
    C      8.29300000     24.77900000     17.93600000      3.95162059
    C      6.90600000     24.41100000     15.93900000      4.16293060
    C      4.64900000     22.27600000     23.95500000      4.11182675
    H      3.64100000     22.04900000     22.24400000      0.88690052
    C      6.83500000     23.31000000     23.77800000      4.12842318
    C      9.28500000     25.35100000     17.10300000      4.16610726
    C      7.88100000     24.97600000     15.13000000      3.94750960
    H      6.10400000     24.09300000     15.53900000      0.88583646
    C      5.85600000     22.75900000     24.53900000      4.10986705
    H      3.98000000     21.88400000     24.50400000      0.89126568
    H      7.63500000     23.61600000     24.18900000      0.89241634
    H     10.09000000     25.67200000     17.49300000      0.88758317
    C      9.10600000     25.45200000     15.72900000      3.94720701
    C      7.71800000     25.10100000     13.70700000      4.13075147
    H      5.97700000     22.69400000     25.48000000      0.89674100
    C     10.10200000     26.03800000     14.86600000      4.12603477
    C      8.69700000     25.65200000     12.94500000      4.11231793
    H      6.91800000     24.79500000     13.29500000      0.89111207
    C      9.90400000     26.13500000     13.53000000      4.11090754
    H     10.91200000     26.36200000     15.24100000      0.89007005
    H      8.57500000     25.71700000     12.00500000      0.89541938
    H     10.57200000     26.52700000     12.98100000      0.89343900
    C     17.33900000      8.27500000     19.54900000      3.95355382
    C     16.34700000      7.70300000     20.38100000      4.15790385
    C     18.56900000      8.76300000     20.15400000      3.94781233
    C     17.15900000      8.37700000     18.16200000      4.15680449
    C     16.52500000      7.60200000     21.75600000      3.94927520
    H     15.54100000      7.38200000     19.99200000      0.88208369
    C     18.72600000      8.64300000     21.54500000      4.17226630
    C     19.55100000      9.32000000     19.32300000      4.17368309
    C     18.14000000      8.93400000     17.33100000      3.95042013
    H     16.34600000      8.05900000     17.78900000      0.88219164
    C     15.52900000      7.01600000     22.61900000      4.12035875
    C     17.75000000      8.07800000     22.35500000      3.94573145
    H     19.52700000      8.96100000     21.94600000      0.89315348
    H     20.36400000      9.63700000     19.69500000      0.89069898
    C     19.37100000      9.42200000     17.93600000      3.95160954
    C     17.98400000      9.05300000     15.93900000      4.15644033
    C     15.72700000      6.91900000     23.95500000      4.11295625
    H     14.71900000      6.69200000     22.24400000      0.88412695
    C     17.91400000      7.95300000     23.77800000      4.13562558
    C     20.36300000      9.99300000     17.10300000      4.17273907
    C     18.96000000      9.61900000     15.13000000      3.94671754
    H     17.18300000      8.73600000     15.53900000      0.88294405
    C     16.93500000      7.40200000     24.53900000      4.10905166
    H     15.05900000      6.52700000     24.50400000      0.89083610
    H     18.71300000      8.25900000     24.18900000      0.89339940
    H     21.16800000     10.31500000     17.49300000      0.89121212
    C     20.18400000     10.09500000     15.72900000      3.94765549
    C     18.79600000      9.74400000     13.70700000      4.12500673
    H     17.05600000      7.33700000     25.48000000      0.89674121
    C     21.18000000     10.68000000     14.86600000      4.13089612
    C     19.77500000     10.29500000     12.94500000      4.11500826
    H     17.99600000      9.43800000     13.29500000      0.88983645
    C     20.98200000     10.77800000     13.53000000      4.10976632
    H     21.99000000     11.00400000     15.24100000      0.89361256
    H     19.65400000     10.36000000     12.00500000      0.89364334
    H     21.65100000     11.16900000     12.98100000      0.89364231
    C     20.10700000     17.10100000     17.93600000      3.95129315
    C     21.09900000     17.67200000     17.10300000      4.17403677
    C     18.87600000     16.61300000     17.33100000      3.95085789
    C     20.28700000     16.99900000     19.32300000      4.17520925
    C     20.92000000     17.77300000     15.72900000      3.94758432
    H     21.90400000     17.99300000     17.49300000      0.89145160
    C     18.72000000     16.73200000     15.93900000      4.15457975
    C     17.89500000     16.05500000     18.16200000      4.15502683
    C     19.30500000     16.44100000     20.15400000      3.94743954
    H     21.10000000     17.31600000     19.69500000      0.89098813
    C     21.91600000     18.35900000     14.86600000      4.13159573
    C     19.69600000     17.29700000     15.13000000      3.94716926
    H     17.91900000     16.41400000     15.53900000      0.88246517
    H     17.08200000     15.73800000     17.78900000      0.88155484
    C     18.07500000     15.95300000     19.54900000      3.95370702
    C     19.46200000     16.32200000     21.54500000      4.17361157
    C     21.71900000     18.45600000     13.53000000      4.11044342
    H     22.72600000     18.68300000     15.24100000      0.89398996
    C     19.53200000     17.42300000     13.70700000      4.12378183
    C     17.08300000     15.38200000     20.38100000      4.15605802
    C     18.48600000     15.75700000     22.35500000      3.94541935
    H     20.26300000     16.63900000     21.94600000      0.89339464
    C     20.51100000     17.97400000     12.94500000      4.11630852
    H     22.38700000     18.84800000     12.98100000      0.89404814
    H     18.73200000     17.11600000     13.29500000      0.88960445
    H     16.27700000     15.06100000     19.99200000      0.88154049
    C     17.26100000     15.28100000     21.75600000      3.94959055
    C     18.65000000     15.63100000     23.77800000      4.13644067
    H     20.39000000     18.03800000     12.00500000      0.89391486
    C     16.26500000     14.69500000     22.61900000      4.11906434
    C     17.67100000     15.08000000     24.53900000      4.10899283
    H     19.45000000     15.93800000     24.18900000      0.89406776
    C     16.46300000     14.59800000     23.95500000      4.11307492
    H     15.45600000     14.37100000     22.24400000      0.88337682
    H     17.79200000     15.01500000     25.48000000      0.89716830
    H     15.79500000     14.20600000     24.50400000      0.89067760
    C     17.57300000     12.67600000      5.49200000      3.95437362
    C     16.58100000     12.10500000      6.32500000      4.15509174
    C     18.80400000     13.16400000      6.09700000      3.94759314
    C     17.39400000     12.77800000      4.10500000      4.15437206
    C     16.76000000     12.00400000      7.69900000      3.94955265
    H     15.77600000     11.78400000      5.93500000      0.88117450
    C     18.96100000     13.04500000      7.48900000      4.17439994
    C     19.78500000     13.72200000      5.26600000      4.17485744
    C     18.37500000     13.33600000      3.27400000      3.95067558
    H     16.58100000     12.46100000      3.73300000      0.88126709
    C     15.76400000     11.41800000      8.56200000      4.11737879
    C     17.98500000     12.48000000      8.29800000      3.94476621
    H     19.76200000     13.36300000      7.88900000      0.89335307
    H     20.59900000     14.03900000      5.63900000      0.89127778
    C     19.60600000     13.82400000      3.87900000      3.95103365
    C     18.21900000     13.45500000      1.88300000      4.15382290
    C     15.96200000     11.32100000      9.89800000      4.11597490
    H     14.95400000     11.09400000      8.18700000      0.88336690
    C     18.14900000     12.35400000      9.72100000      4.13910367
    C     20.59800000     14.39500000      3.04700000      4.17422880
    C     19.19500000     14.02000000      1.07300000      3.94757469
    H     17.41700000     13.13800000      1.48200000      0.88260695
    C     17.17000000     11.80300000     10.48300000      4.11148758
    H     15.29400000     10.92900000     10.44700000      0.89180990
    H     18.94800000     12.66100000     10.13300000      0.89451768
    H     21.40300000     14.71600000      3.43600000      0.89119888
    C     20.41900000     14.49600000      1.67200000      3.94781415
    C     19.03100000     14.14600000     -0.35000000      4.12270669
    H     17.29100000     11.73800000     11.42300000      0.89192236
    C     21.41500000     15.08200000      0.80900000      4.13177560
    C     20.01000000     14.69700000     -1.11100000      4.11397732
    H     18.23100000     13.83900000     -0.76100000      0.89018460
    C     21.21700000     15.17900000     -0.52700000      4.10971947
    H     22.22500000     15.40600000      1.18400000      0.89381500
    H     19.88900000     14.76200000     -2.05200000      0.89660278
    H     21.88600000     15.57100000     -1.07600000      0.89413841
    C     20.34200000     21.50200000      3.87900000      3.94823086
    C     21.33400000     22.07400000      3.04700000      4.17063117
    C     19.11100000     21.01400000      3.27400000      3.94944241
    C     20.52100000     21.40000000      5.26600000      4.17106370
    C     21.15500000     22.17500000      1.67200000      3.94454231
    H     22.13900000     22.39500000      3.43600000      0.89337211
    C     18.95500000     21.13400000      1.88300000      4.15906694
    C     18.13000000     20.45700000      4.10500000      4.15985658
    C     19.54000000     20.84300000      6.09700000      3.94456085
    H     21.33500000     21.71800000      5.63900000      0.89357370
    C     22.15100000     22.76100000      0.80900000      4.12851310
    C     19.93100000     21.69900000      1.07300000      3.94608390
    H     18.15300000     20.81600000      1.48200000      0.88409346
    H     17.31700000     20.14000000      3.73300000      0.88255165
    C     18.31000000     20.35500000      5.49200000      3.95292998
    C     19.69700000     20.72400000      7.48900000      4.17081224
    C     21.95300000     22.85800000     -0.52700000      4.10784490
    H     22.96100000     23.08500000      1.18400000      0.89593861
    C     19.76700000     21.82400000     -0.35000000      4.12736376
    C     17.31800000     19.78300000      6.32500000      4.16028271
    C     18.72100000     20.15800000      8.29800000      3.94177166
    H     20.49800000     21.04100000      7.88900000      0.89525080
    C     20.74600000     22.37500000     -1.11100000      4.11223962
    H     22.62200000     23.25000000     -1.07600000      0.89542690
    H     18.96700000     21.51800000     -0.76100000      0.89169992
    H     16.51200000     19.46200000      5.93500000      0.88264235
    C     17.49600000     19.68200000      7.69900000      3.94819634
    C     18.88500000     20.03300000      9.72100000      4.13557838
    H     20.62500000     22.44000000     -2.05200000      0.89768015
    C     16.50000000     19.09700000      8.56200000      4.12195080
    C     17.90600000     19.48200000     10.48300000      4.10956700
    H     19.68400000     20.33900000     10.13300000      0.89581848
    C     16.69800000     18.99900000      9.89800000      4.11453116
    H     15.69000000     18.77300000      8.18700000      0.88464824
    H     18.02700000     19.41700000     11.42300000      0.89236517
    H     16.03000000     18.60800000     10.44700000      0.89225612
    C     20.84300000     24.77900000     17.93600000      3.94816857
    C     21.83500000     25.35100000     17.10300000      4.17100053
    C     19.61300000     24.29100000     17.33100000      3.94982768
    C     21.02300000     24.67700000     19.32300000      4.17192439
    C     21.65700000     25.45200000     15.72900000      3.94449079
    H     22.64100000     25.67200000     17.49300000      0.89402436
    C     19.45600000     24.41100000     15.93900000      4.15893531
    C     18.63100000     23.73400000     18.16200000      4.15966471
    C     20.04200000     24.12000000     20.15400000      3.94447952
    H     21.83600000     24.99400000     19.69500000      0.89342783
    C     22.65300000     26.03800000     14.86600000      4.12922672
    C     20.43200000     24.97600000     15.13000000      3.94634203
    H     18.65500000     24.09300000     15.53900000      0.88356098
    H     17.81800000     23.41700000     17.78900000      0.88249515
    C     18.81100000     23.63200000     19.54900000      3.95283351
    C     20.19800000     24.00000000     21.54500000      4.17025311
    C     22.45500000     26.13500000     13.53000000      4.10853475
    H     23.46200000     26.36200000     15.24100000      0.89607076
    C     20.26800000     25.10100000     13.70700000      4.12664368
    C     17.81900000     23.06000000     20.38100000      4.16059028
    C     19.22200000     23.43500000     22.35500000      3.94186860
    H     20.99900000     24.31800000     21.94600000      0.89573629
    C     21.24700000     25.65200000     12.94500000      4.11334057
    H     23.12300000     26.52700000     12.98100000      0.89557359
    H     19.46800000     24.79500000     13.29500000      0.89135346
    H     17.01400000     22.73900000     19.99200000      0.88228049
    C     17.99800000     22.95900000     21.75600000      3.94825864
    C     19.38600000     23.31000000     23.77800000      4.13335347
    H     21.12600000     25.71700000     12.00500000      0.89702606
    C     17.00200000     22.37300000     22.61900000      4.12267799
    C     18.40700000     22.75900000     24.53900000      4.10716853
    H     20.18600000     23.61600000     24.18900000      0.89565512
    C     17.19900000     22.27600000     23.95500000      4.11179418
    H     16.19200000     22.04900000     22.24400000      0.88455400
    H     18.52800000     22.69400000     25.48000000      0.89799121
    H     16.53100000     21.88400000     24.50400000      0.89132117
    C     18.87000000      6.14500000      3.87900000      3.95145085
    C     19.86200000      6.71700000      3.04700000      4.17405577
    C     17.63900000      5.65700000      3.27400000      3.95065093
    C     19.04900000      6.04300000      5.26600000      4.17458266
    C     19.68300000      6.81800000      1.67200000      3.94801781
    H     20.66700000      7.03800000      3.43600000      0.89115420
    C     17.48300000      5.77700000      1.88300000      4.15506397
    C     16.65800000      5.10000000      4.10500000      4.15578619
    C     18.06800000      5.48600000      6.09700000      3.94783759
    H     19.86300000      6.36000000      5.63900000      0.89127714
    C     20.67900000      7.40400000      0.80900000      4.13158997
    C     18.45900000      6.34200000      1.07300000      3.94750735
    H     16.68100000      5.45900000      1.48200000      0.88312264
    H     15.84400000      4.78300000      3.73300000      0.88187334
    C     16.83700000      4.99800000      5.49200000      3.95440084
    C     18.22500000      5.36600000      7.48900000      4.17451463
    C     20.48100000      7.50100000     -0.52700000      4.10991578
    H     21.48900000      7.72800000      1.18400000      0.89382888
    C     18.29500000      6.46700000     -0.35000000      4.12327710
    C     15.84500000      4.42600000      6.32500000      4.15708878
    C     17.24900000      4.80100000      8.29800000      3.94467981
    H     19.02600000      5.68400000      7.88900000      0.89329535
    C     19.27400000      7.01800000     -1.11100000      4.11369552
    H     21.15000000      7.89300000     -1.07600000      0.89410302
    H     17.49500000      6.16100000     -0.76100000      0.89031710
    H     15.04000000      4.10500000      5.93500000      0.88154751
    C     16.02400000      4.32500000      7.69900000      3.94920993
    C     17.41200000      4.67600000      9.72100000      4.14005527
    H     19.15300000      7.08300000     -2.05200000      0.89651317
    C     15.02800000      3.73900000      8.56200000      4.12087638
    C     16.43300000      4.12500000     10.48300000      4.10692007
    H     18.21200000      4.98200000     10.13300000      0.89487869
    C     15.22600000      3.64200000      9.89800000      4.11128361
    H     14.21800000      3.41500000      8.18700000      0.88365532
    H     16.55500000      4.06000000     11.42300000      0.89153860
    H     14.55800000      3.25000000     10.44700000      0.88978507
    C      2.01000000     12.71500000     19.73500000      3.95289288
    C      1.02600000     12.72000000     20.75400000      4.17464038
    C      3.25400000     11.98600000     19.96700000      3.95164113
    C      1.83900000     13.39500000     18.52200000      4.17387671
    C      1.22100000     12.06000000     21.95400000      3.94414299
    H      0.21100000     13.18700000     20.60900000      0.89225670
    C      3.42500000     11.30900000     21.19100000      4.15566465
    C      4.23000000     11.98000000     18.96300000      4.15351618
    C      2.81500000     13.39000000     17.51800000      3.94879955
    H      1.02600000     13.86700000     18.39100000      0.89180770
    C      0.23700000     12.07700000     22.99200000      4.13075461
    C      2.45200000     11.33600000     22.18100000      3.94781291
    H      4.22600000     10.82100000     21.34300000      0.88271361
    H      5.04400000     11.50800000     19.09400000      0.88248799
    C      4.05900000     12.66000000     17.75000000      3.95579559
    C      2.64500000     14.06600000     16.29400000      4.17317469
    C      0.44800000     11.43400000     24.16400000      4.10909721
    H     -0.57800000     12.54600000     22.85500000      0.89535883
    C      2.62400000     10.67600000     23.43500000      4.11882434
    C      5.04400000     12.65600000     16.73100000      4.15508891
    C      3.61700000     14.03900000     15.30400000      3.94543314
    H      1.84400000     14.55400000     16.14200000      0.89222390
    C      1.66600000     10.71900000     24.39300000      4.11566018
    H     -0.21800000     11.45700000     24.84000000      0.89567543
    H      3.42600000     10.19500000     23.60000000      0.88689235
    H      5.85800000     12.18800000     16.87600000      0.88213834
    C      4.84800000     13.31500000     15.53000000      3.94701310
    C      3.44600000     14.69900000     14.05000000      4.13153945
    H      1.80500000     10.27400000     25.22100000      0.89455220
    C      5.83200000     13.29800000     14.49300000      4.11828117
    C      4.40300000     14.65600000     13.09200000      4.11583287
    H      2.64300000     15.18000000     13.88400000      0.89541597
    C      5.62100000     13.94200000     13.32100000      4.12065186
    H      6.64700000     12.82900000     14.62900000      0.88230757
    H      4.26500000     15.10100000     12.26400000      0.89330110
    H      6.28800000     13.91800000     12.64500000      0.89386982
    C      3.55800000      9.38400000      3.69300000      3.95569656
    C      4.54200000      9.37900000      2.67400000      4.15477329
    C      2.31400000     10.11300000      3.46100000      3.94883640
    C      3.72900000      8.70400000      4.90600000      4.15365880
    C      4.34700000     10.03800000      1.47400000      3.94707772
    H      5.35700000      8.91100000      2.81900000      0.88229650
    C      2.14300000     10.79000000      2.23700000      4.17417080
    C      1.33800000     10.11800000      4.46500000      4.17420402
    C      2.75300000      8.70900000      5.91000000      3.95185104
    H      4.54200000      8.23100000      5.03700000      0.88230167
    C      5.33100000     10.02100000      0.43600000      4.11834022
    C      3.11600000     10.76200000      1.24700000      3.94556148
    H      1.34200000     11.27700000      2.08500000      0.89197135
    H      0.52500000     10.59000000      4.33400000      0.89186851
    C      1.50900000      9.43800000      5.67800000      3.95309515
    C      2.92300000      8.03200000      7.13400000      4.15535662
    C      5.12000000     10.66500000     -0.73600000      4.11663824
    H      6.14600000      9.55200000      0.57300000      0.88245423
    C      2.94400000     11.42200000     -0.00700000      4.13166607
    C      0.52400000      9.44300000      6.69700000      4.17507410
    C      1.95100000      8.05900000      8.12400000      3.94755733
    H      3.72400000      7.54400000      7.28600000      0.88265594
    C      3.90200000     11.37900000     -0.96500000      4.11324399
    H      5.78600000     10.64100000     -1.41200000      0.89365751
    H      2.14200000     11.90300000     -0.17200000      0.89498466
    H     -0.29000000      9.91000000      6.55200000      0.89202385
    C      0.72000000      8.78400000      7.89800000      3.94425996
    C      2.12300000      7.39900000      9.37800000      4.12004032
    H      3.76300000     11.82400000     -1.79300000      0.89531026
    C     -0.26400000      8.80000000      8.93500000      4.12967808
    C      1.16500000      7.44200000     10.33600000      4.11899989
    H      2.92500000      6.91800000      9.54400000      0.88713784
    C     -0.05300000      8.15700000     10.10700000      4.10929163
    H     -1.07900000      9.26900000      8.79900000      0.89536678
    H      1.30300000      6.99700000     11.16400000      0.89394426
    H     -0.72000000      8.18000000     10.78300000      0.89591851
    C      0.77300000      1.75900000      5.67800000      3.95370137
    C     -0.21200000      1.76400000      6.69700000      4.16940995
    C      2.01700000      1.03000000      5.91000000      3.94944864
    C      0.60200000      2.43900000      4.46500000      4.16778383
    C     -0.01600000      1.10500000      7.89800000      3.94446872
    H     -1.02600000      2.23200000      6.55200000      0.89144105
    C      2.18700000      0.35300000      7.13400000      4.16100279
    C      2.99200000      1.02500000      4.90600000      4.15900937
    C      1.57800000      2.43400000      3.46100000      3.94941196
    H     -0.21200000      2.91200000      4.33400000      0.89151854
    C     -1.00000000      1.12200000      8.93500000      4.12731199
    C      1.21500000      0.38100000      8.12400000      3.94565327
    H      2.98800000     -0.13400000      7.28600000      0.88813547
    H      3.80600000      0.55200000      5.03700000      0.88795988
    C      2.82200000      1.70500000      3.69300000      3.95330631
    C      1.40700000      3.11100000      2.23700000      4.16822198
    C     -0.78900000      0.47800000     10.10700000      4.10719406
    H     -1.81500000      1.59100000      8.79900000      0.89442555
    C      1.38600000     -0.27900000      9.37800000      4.12388715
    C      3.80600000      1.70000000      2.67400000      4.16007909
    C      2.38000000      3.08400000      1.24700000      3.94595954
    H      0.60600000      3.59800000      2.08500000      0.89132339
    C      0.42900000     -0.23600000     10.33600000      4.11003868
    H     -1.45600000      0.50100000     10.78300000      0.89422263
    H      2.18900000     -0.76000000      9.54400000      0.89381779
    H      4.62100000      1.23200000      2.81900000      0.88762994
    C      3.61100000      2.35900000      1.47400000      3.94496773
    C      2.20800000      3.74400000     -0.00700000      4.12782507
    H      0.56700000     -0.68100000     11.16400000      0.89354140
    C      4.59500000      2.34300000      0.43600000      4.12261718
    C      3.16600000      3.70100000     -0.96500000      4.11168600
    H      1.40600000      4.22500000     -0.17200000      0.89410099
    C      4.38400000      2.98600000     -0.73600000      4.11072805
    H      5.41000000      1.87400000      0.57300000      0.88955802
    H      3.02700000      4.14600000     -1.79300000      0.89389041
    H      5.05000000      2.96300000     -1.41200000      0.89262981
    C      1.27400000      5.03600000     19.73500000      3.95355695
    C      0.29000000      5.04100000     20.75400000      4.16800164
    C      2.51800000      4.30700000     19.96700000      3.94933659
    C      1.10300000      5.71600000     18.52200000      4.16704192
    C      0.48500000      4.38200000     21.95400000      3.94463038
    H     -0.52500000      5.50900000     20.60900000      0.89145383
    C      2.68800000      3.63000000     21.19100000      4.16096796
    C      3.49400000      4.30200000     18.96300000      4.15932998
    C      2.07900000      5.71100000     17.51800000      3.94947836
    H      0.29000000      6.18900000     18.39100000      0.89110210
    C     -0.49900000      4.39900000     22.99200000      4.12678562
    C      1.71600000      3.65700000     22.18100000      3.94535734
    H      3.49000000      3.14300000     21.34300000      0.88834106
    H      4.30700000      3.82900000     19.09400000      0.88772853
    C      3.32300000      4.98200000     17.75000000      3.95317066
    C      1.90900000      6.38800000     16.29400000      4.16706802
    C     -0.28800000      3.75500000     24.16400000      4.10716829
    H     -1.31400000      4.86700000     22.85500000      0.89399822
    C      1.88800000      2.99800000     23.43500000      4.12414894
    C      4.30800000      4.97700000     16.73100000      4.16089192
    C      2.88100000      6.36100000     15.30400000      3.94576752
    H      1.10700000      6.87500000     16.14200000      0.89137456
    C      0.93000000      3.04100000     24.39300000      4.11025452
    H     -0.95400000      3.77800000     24.84000000      0.89386767
    H      2.69000000      2.51600000     23.60000000      0.89363004
    H      5.12200000      4.50900000     16.87600000      0.88741842
    C      4.11200000      5.63600000     15.53000000      3.94485885
    C      2.70900000      7.02000000     14.05000000      4.12774650
    H      1.06800000      2.59600000     25.22100000      0.89369500
    C      5.09600000      5.61900000     14.49300000      4.12354281
    C      3.66700000      6.97700000     13.09200000      4.11411162
    H      1.90700000      7.50200000     13.88400000      0.89405805
    C      4.88500000      6.26300000     13.32100000      4.11477571
    H      5.91100000      5.15100000     14.62900000      0.88948764
    H      3.52900000      7.42200000     12.26400000      0.89133272
    H      5.55100000      6.24000000     12.64500000      0.89266004
    C      2.74600000     20.39300000     19.73500000      3.95267701
    C      1.76200000     20.39800000     20.75400000      4.17635232
    C      3.99000000     19.66400000     19.96700000      3.95203569
    C      2.57600000     21.07300000     18.52200000      4.17586796
    C      1.95700000     19.73900000     21.95400000      3.94369240
    H      0.94700000     20.86600000     20.60900000      0.89294318
    C      4.16100000     18.98700000     21.19100000      4.15471423
    C      4.96600000     19.65900000     18.96300000      4.15273743
    C      3.55100000     21.06800000     17.51800000      3.94840040
    H      1.76200000     21.54600000     18.39100000      0.89279394
    C      0.97300000     19.75600000     22.99200000      4.13197051
    C      3.18800000     19.01500000     22.18100000      3.94813364
    H      4.96200000     18.50000000     21.34300000      0.88234283
    H      5.78000000     19.18700000     19.09400000      0.88226788
    C      4.79500000     20.33900000     17.75000000      3.95601181
    C      3.38100000     21.74500000     16.29400000      4.17572162
    C      1.18400000     19.11200000     24.16400000      4.10872412
    H      0.15800000     20.22500000     22.85500000      0.89570663
    C      3.36000000     18.35500000     23.43500000      4.11798794
    C      5.78000000     20.33400000     16.73100000      4.15478084
    C      4.35300000     21.71800000     15.30400000      3.94544704
    H      2.58000000     22.23200000     16.14200000      0.89253639
    C      2.40200000     18.39800000     24.39300000      4.11568567
    H      0.51800000     19.13500000     24.84000000      0.89584125
    H      4.16300000     17.87400000     23.60000000      0.88682392
    H      6.59400000     19.86700000     16.87600000      0.88177923
    C      5.58400000     20.99300000     15.53000000      3.94734481
    C      4.18200000     22.37800000     14.05000000      4.13288433
    H      2.54100000     17.95300000     25.22100000      0.89453375
    C      6.56800000     20.97700000     14.49300000      4.11981438
    C      5.13900000     22.33500000     13.09200000      4.11101905
    H      3.37900000     22.85900000     13.88400000      0.89520042
    C      6.35700000     21.62000000     13.32100000      4.11893968
    H      7.38300000     20.50800000     14.62900000      0.88211248
    H      5.00100000     22.78000000     12.26400000      0.89212301
    H      7.02400000     21.59700000     12.64500000      0.89313998
    C      4.29400000     17.06200000      3.69300000      3.95595800
    C      5.27800000     17.05700000      2.67400000      4.15410003
    C      3.05000000     17.79100000      3.46100000      3.94855012
    C      4.46500000     16.38200000      4.90600000      4.15286550
    C      5.08300000     17.71700000      1.47400000      3.94760275
    H      6.09300000     16.59000000      2.81900000      0.88194979
    C      2.88000000     18.46800000      2.23700000      4.17531859
    C      2.07400000     17.79700000      4.46500000      4.17601011
    C      3.48900000     16.38700000      5.91000000      3.95182981
    H      5.27800000     15.91000000      5.03700000      0.88201676
    C      6.06700000     17.70000000      0.43600000      4.11743789
    C      3.85200000     18.44100000      1.24700000      3.94537541
    H      2.07800000     18.95600000      2.08500000      0.89285474
    H      1.26100000     18.26900000      4.33400000      0.89220057
    C      2.24500000     17.11600000      5.67800000      3.95281423
    C      3.65900000     15.71100000      7.13400000      4.15454636
    C      5.85600000     18.34300000     -0.73600000      4.11714263
    H      6.88200000     17.23100000      0.57300000      0.88222772
    C      3.68000000     19.10100000     -0.00700000      4.13281961
    C      1.26000000     17.12100000      6.69700000      4.17654568
    C      2.68700000     15.73800000      8.12400000      3.94743402
    H      4.46100000     15.22300000      7.28600000      0.88264048
    C      4.63800000     19.05800000     -0.96500000      4.11366432
    H      6.52200000     18.32000000     -1.41200000      0.89354899
    H      2.87800000     19.58200000     -0.17200000      0.89539716
    H      0.44600000     17.58900000      6.55200000      0.89243506
    C      1.45600000     16.46200000      7.89800000      3.94351338
    C      2.85900000     15.07800000      9.37800000      4.11977637
    H      4.50000000     19.50300000     -1.79300000      0.89541742
    C      0.47200000     16.47900000      8.93500000      4.13103178
    C      1.90100000     15.12100000     10.33600000      4.11746741
    H      3.66100000     14.59700000      9.54400000      0.88663828
    C      0.68300000     15.83500000     10.10700000      4.10813801
    H     -0.34300000     16.94800000      8.79900000      0.89542031
    H      2.03900000     14.67600000     11.16400000      0.89283429
    H      0.01700000     15.85900000     10.78300000      0.89545684
