   36
Geometry Step: 0
    C     10.43899177     29.08154596     63.25202773      4.38299962
    C      9.45186822     29.09404188     64.26983887      3.22827781
    C     11.67467538     28.35415851     63.48133125      4.24693836
    C     10.25564107     29.75366672     62.02842620      2.99761993
    C      9.64183159     28.42610530     65.48177524      4.18748158
    H      8.52486015     29.63985441     64.09852366      1.39598566
    C     11.85443659     27.67973728     64.71550120      3.22711330
    C     12.65910207     28.33867900     62.47478366      3.32621261
    C     11.24006580     29.73818261     61.02187700      4.51001135
    H      9.32893162     30.29944694     61.85562363      1.48835768
    C      8.64920383     28.43536163     66.51912563      3.79869602
    C     10.87418350     27.70057862     65.71025517      4.19203503
    H     12.78143062     27.13423268     64.88810724      1.42831599
    H     13.58581323     27.79290169     62.64758664      1.24327648
    C     12.47575124     29.01079918     61.25118182      4.41540765
    C     11.06030471     30.41260347     59.78770714      2.80966429
    C      8.85956585     27.77537505     67.70111742      3.54856399
    H      7.72141213     28.97914396     66.35027611      1.16928357
    C     11.04858073     27.02262965     66.96374629      3.77027739
    C     13.46287666     28.99830724     60.23337216      2.98078243
    C     12.04055943     30.39176837     58.79295497      4.61381139
    H     10.13330599     30.95809699     59.61509618      1.60422425
    C     10.07440676     27.05993337     67.92624226      3.58046041
    H      8.10097682     27.79082247     68.48022713      1.33755989
    H     11.97339761     26.47565086     67.13803413      1.11492962
    H     14.38988757     28.45249978     60.40469055      1.46435109
    C     13.27291357     29.66624584     59.02143668      4.45407775
    C     11.86616417     31.06972165     57.53946565      2.96584735
    H     10.21859257     26.54360017     68.87248852      1.33848244
    C     14.26554401     29.65699498     57.98408873      3.16338684
    C     12.84034042     31.03242314     56.57697206      2.76857105
    H     10.94134802     31.61669978     57.36517406      1.74821678
    C     14.05518065     30.31698037     56.80209656      3.81857731
    H     15.19333584     29.11321201     58.15293734      1.39815524
    H     12.69615721     31.54876267     55.63072868      1.87624867
    H     14.81376916     30.30153258     56.02298662      1.40579918
   36
Geometry Step: 1
    C     10.43004882     29.08485680     63.25370718      4.66873151
    C      9.47897951     29.06479803     64.24886420      2.96525679
    C     11.67322484     28.35123618     63.48473035      4.33142318
    C     10.32271748     29.72210404     62.00532343      2.27395459
    C      9.63859058     28.42814278     65.48309982      4.25127144
    H      8.52570455     29.61995839     64.09362580      1.46715722
    C     11.87176897     27.69795099     64.70822691      3.06628708
    C     12.67789227     28.35510632     62.47230260      3.09436156
    C     11.22882505     29.74231589     61.02172934      5.34398106
    H      9.34588816     30.27110998     61.84827505      1.67436303
    C      8.65700390     28.43076640     66.51796104      3.80320807
    C     10.87381865     27.69894003     65.71283251      4.21583922
    H     12.81504984     27.14078525     64.88852145      1.50218802
    H     13.59269242     27.79530071     62.64968118      1.22937466
    C     12.47519988     29.00577637     61.25226843      4.86141008
    C     11.15230381     30.37018791     59.74712055      1.39308029
    C      8.88268488     27.76708006     67.68398879      3.43154227
    H      7.72242358     28.97804006     66.34711772      1.15704394
    C     11.04978315     27.02577304     66.96264733      3.76473549
    C     13.51618697     29.02209827     60.21357227      2.16678198
    C     12.02410158     30.39720897     58.79444666      6.45923906
    H     10.19529166     30.94989612     59.59858653      1.95985143
    C     10.08425433     27.06955258     67.91484266      3.55638873
    H      8.10544881     27.78395587     68.47590988      1.37736332
    H     11.97630699     26.47557786     67.13807072      1.10028806
    H     14.41860407     28.45478044     60.38966367      1.56528993
    C     13.26443324     29.66443209     59.03045717      5.59561565
    C     12.05673755     31.06412446     57.51612427      0.27832745
    H     10.23154287     26.54195243     68.87238302      1.35312760
    C     14.28625505     29.59644644     57.93712209      2.30417089
    C     13.02682820     30.95554416     56.42435611      3.56112378
    H     11.01466168     31.53022142     57.31659716      2.21253056
    C     14.04568194     30.30989494     56.79759440      4.27341046
    H     15.19768022     29.09797254     58.14526342      1.50513741
    H     12.84895773     31.72672791     55.60815172      1.94006179
    H     14.81933358     30.28134524     56.00510767      1.29608242
   36
Geometry Step: 2
    C     10.42826924     29.08552174     63.25401025      4.77808487
    C      9.48452319     29.05864781     64.24437097      2.89051034
    C     11.67294753     28.35064682     63.48540740      4.36550346
    C     10.33813199     29.71484844     61.99957316      2.03422238
    C      9.63796877     28.42853251     65.48337399      4.26396466
    H      8.52592614     29.61584298     64.09262492      1.47867921
    C     11.87540194     27.70164673     64.70676750      3.01582686
    C     12.68186036     28.35847669     62.47184745      2.98372255
    C     11.22653804     29.74323942     61.02146470      5.81285341
    H      9.34961638     30.26502285     61.84672826      1.72674477
    C      8.65854754     28.42987004     66.51769319      3.80136543
    C     10.87374937     27.69861764     65.71334140      4.22113919
    H     12.82199357     27.14220491     64.88859189      1.51729554
    H     13.59406347     27.79578789     62.65009416      1.22162510
    C     12.47512832     29.00473648     61.25238969      5.06672345
    C     11.17883226     30.35852309     59.73267994      0.79707652
    C      8.88740205     27.76535339     67.68051108      3.40388861
    H      7.72263425     28.97781351     66.34649163      1.15176784
    C     11.05006261     27.02639785     66.96240006      3.76002477
    C     13.52908363     29.02724197     60.20921266      2.06995216
    C     12.02053894     30.39850016     58.79452840      6.30188009
    H     10.21042289     30.94769421     59.59476006      2.07325751
    C     10.08625289     27.07146409     67.91259901      3.55241634
    H      8.10638165     27.78256285     68.47500961      1.38434914
    H     11.97688094     26.47556635     67.13807630      1.09605258
    H     14.42453816     28.45530708     60.38649607      1.58362359
    C     13.26222283     29.66421194     59.03239493      5.67215671
    C     11.95291569     31.09370549     57.50427735      0.97607389
    H     10.23415288     26.54163549     68.87233478      1.35455263
    C     14.29256464     29.57990927     57.92474687      1.92012924
    C     13.05929205     30.94211280     56.39748091      3.50152239
    H     11.07184253     31.47668684     57.29663375      2.31946545
    C     14.04410486     30.30872904     56.79701321      4.18671806
    H     15.19854927     29.09483844     58.14367648      1.63138267
    H     12.87356340     31.75522630     55.60490190      1.73827903
    H     14.82046201     30.27730788     56.00159307      1.34716955
   36
Geometry Step: 3
    C     10.42659305     29.08631567     63.25367804      5.30526021
    C      9.49175736     29.04803255     64.23543472      2.76241489
    C     11.67289030     28.35001530     63.48593410      4.48918079
    C     10.38842420     29.69116554     61.97360438      1.08810172
    C      9.63772549     28.42865904     65.48378293      4.27388870
    H      8.52690594     29.60990873     64.09136148      1.48649187
    C     11.88144054     27.70601353     64.70531407      2.87659399
    C     12.68917846     28.36303537     62.47228026      2.98718101
    C     11.22356182     29.74569114     61.01741960      5.63819077
    H      9.35847226     30.25268249     61.84401268      1.96866618
    C      8.65982678     28.42932616     66.51690981      3.79252329
    C     10.87373739     27.69837748     65.71374358      4.23721191
    H     12.83195580     27.14519498     64.88847445      1.54394978
    H     13.59530032     27.79636446     62.65039702      1.19666793
    C     12.47505172     29.00342510     61.25088680      5.24188246
    C     11.42623438     30.27307088     59.51568119      2.01415181
    C      8.89336886     27.76267090     67.67637112      3.36291807
    H      7.72295314     28.97751553     66.34596935      1.13919738
    C     11.05089932     27.02695307     66.96176451      3.74819576
    C     13.57681780     29.03811128     60.19815353      1.69520445
    C     12.01407920     30.40125035     58.79337767      4.83550242
    H     10.27466429     30.93459816     59.58254401      2.07163588
    C     10.08859247     27.07314406     67.91094482      3.55162845
    H      8.10782962     27.78093522     68.47361615      1.39292109
    H     11.97732382     26.47559793     67.13805696      1.09088368
    H     14.43306088     28.45684677     60.38104193      1.73242928
    C     13.25394176     29.66523508     59.03647464      6.32044080
    C     11.79918832     31.09195352     57.52635475      3.54080156
    H     10.23695983     26.54150707     68.87190408      1.35431418
    C     14.34341835     29.47056448     57.84994395      0.10341562
    C     13.03735245     30.95053222     56.41106103      2.01374126
    H     10.91668957     31.65501338     57.39486564      1.25517521
    C     14.04773976     30.30915750     56.80005175      5.43008545
    H     15.19951243     29.08995837     58.14102528      2.15717986
    H     12.84513525     31.72145113     55.61125121      1.97660508
    H     14.82170194     30.27273924     55.99858245      1.32536719
   36
Geometry Step: 4
    C     10.42549817     29.08686634     63.25336880      6.98158996
    C      9.49614473     29.04136098     64.22983009      2.50328753
    C     11.67280670     28.34964887     63.48623646      4.95386284
    C     10.44527291     29.66663707     61.93839028     -1.18577914
    C      9.63760007     28.42870882     65.48404207      4.23736608
    H      8.52752966     29.60637998     64.09061635      1.32027407
    C     11.88522410     27.70862726     64.70446640      2.47986956
    C     12.69362322     28.36571322     62.47255457      2.56336625
    C     11.22222377     29.74683743     61.01511172      7.77549934
    H      9.36468234     30.24416508     61.84234488      2.18088170
    C      8.66056178     28.42903461     66.51640869      3.69200391
    C     10.87372904     27.69824359     65.71397239      4.21441550
    H     12.83796715     27.14704974     64.88839383      1.50562604
    H     13.59599331     27.79668813     62.65056334      0.94593954
    C     12.47497878     29.00257646     61.25004869      6.34355978
    C     11.53272267     30.23503714     59.42250366      2.10706849
    C      8.89691720     27.76104689     67.67392999      3.32597852
    H      7.72313859     28.97734311     66.34568008      1.08861273
    C     11.05141666     27.02727334     66.96137388      3.68527156
    C     13.61718613     29.04734148     60.18783165      0.51856564
    C     12.01379071     30.40294111     58.78959441      4.46314777
    H     10.35928721     30.91715636     59.56765749      2.07084620
    C     10.08994629     27.07409952     67.91002551      3.51383107
    H      8.10869248     27.77998469     68.47278631      1.36127790
    H     11.97757198     26.47561744     67.13804431      1.05525334
    H     14.43852203     28.45785839     60.37744005      1.98156267
    C     13.24984690     29.66535266     59.03848174      5.55386604
    C     11.79496476     31.07627570     57.54005091      3.78118724
    H     10.23858152     26.54144222     68.87163805      1.32074233
    C     14.26267942     29.64268205     57.97282314      3.01839943
    C     13.01455690     30.96051683     56.42607102      1.65467496
    H     10.82250793     31.75711021     57.44634442      1.02788970
    C     14.04975075     30.31102344     56.80406845      4.14081826
    H     15.19976417     29.08655555     58.13895430      1.28623580
    H     12.82478367     31.69686280     55.61562071      2.14310085
    H     14.82233071     30.27005447     55.99687930      1.38990658
