36
title
C     23.627347636760  37.913317069025  35.110965104518
C     22.648898448358  37.915976188293  36.151603530748
C     24.898181467073  37.247275804671  35.257445916711
C     23.428871357170  38.599206614704  33.850154350294
C     22.936857630692  37.192289155091  37.332085299663
H     21.673364929418  38.316810784615  36.001183541116
C     25.180057378449  36.623807009314  36.515071200386
C     25.871858326512  37.285551183266  34.239005946377
C     24.477108884078  38.712876325652  32.858310341174
H     22.532434183300  39.174685868567  33.542376603150
C     21.987628949486  37.204184091161  38.400059490321
C     24.176640729767  36.524245398089  37.498016178098
H     26.060821428645  36.023028809487  36.677161518686
H     26.837445977867  36.810598273686  34.464467503583
C     25.711056123592  38.007186136096  33.085973336758
C     24.311064488230  39.458338488093  31.631821107031
C     22.264565509073  36.508127874718  39.585314438799
H     20.984138525778  37.645137136578  38.205397440435
C     24.377135210336  35.793531003572  38.684270977406
C     26.724970571826  38.059777664628  32.113423499438
C     25.402659633261  39.553416784993  30.766103282478
H     23.474889524657  40.196268886287  31.464391762291
C     23.488306079037  35.763755400260  39.679442003583
H     21.611793492733  36.460748492590  40.444664545085
H     25.312227988150  35.290201439196  38.710348477056
H     27.659190257385  37.517482319608  32.290710655679
C     26.607191343743  38.765959463566  30.914454899368
C     25.177336077024  40.204911431824  29.503080155339
H     23.651979574911  35.053107724258  40.470610134953
C     27.437566467495  38.728784091552  29.805030048571
C     26.096093378768  40.302425935580  28.515135338846
H     24.180178779755  40.651991839391  29.359998165682
C     27.293438691237  39.506886551016  28.625856176030
H     28.276164518712  38.015984351752  29.843828448581
H     25.923120760784  40.748122041623  27.535953059570
H     28.119074096927  39.398992735504  27.887743622545
