72
frame=6 time_fs=6.000000
C         8.1999109499        12.5749544284        19.8611062724
C         7.2434356948        12.5456123405        20.9169914633
C         9.4779162810        11.9048292256        20.0765063265
C         7.9480283380        13.2232660987        18.6487333105
C         7.4637844695        11.9163526894        22.1287467183
H         6.2694506692        13.0780514790        20.7630956391
C         9.6874461007        11.2250498289        21.3244438650
C        10.4598956655        11.9681401473        19.0588462929
C         8.9202783339        13.2364186131        17.6322360194
H         6.9729799884        13.7481443834        18.4824974784
C         6.4755129528        11.9429070216        23.1376639785
C         8.7235618953        11.2127976324        22.3797537407
H        10.6122320826        10.7259698919        21.4966084723
H        11.4521388762        11.5107049609        19.2175747654
C        10.2172478729        12.6095904260        17.8179498058
C         8.7271520645        13.9057969154        16.3851624630
C         6.6892723491        11.3971417648        24.3492193871
H         5.4942840015        12.4448372925        22.9031251032
C         8.9086509095        10.5971144123        23.6793222918
C        11.2073472773        12.6698723633        16.7884140539
C         9.6890902912        13.9653551666        15.3660086284
H         7.7528142797        14.4150064384        16.2466659107
C         7.9325891977        10.7082047621        24.6369658405
H         5.9610413138        11.4037366945        25.1351262824
H         9.8164600444        10.0590523241        23.8876550520
H        12.1328387773        12.1899494153        16.9808560010
C        10.9508626479        13.2912431300        15.5467777315
C         9.4614451059        14.6471612879        14.0937998509
H         8.0246522568        10.2600038904        25.6529604878
C        11.8382268950        13.2420011898        14.4128686880
C        10.3834968262        14.6472834163        13.0854791019
H         8.5061411725        15.1904890248        13.9670578979
C        11.5595058260        13.8672316154        13.2251727137
H        12.7806276172        12.6841442192        14.5299201114
H        10.2030850241        15.1900812575        12.1593456712
H        12.2918417862        13.8032575672        12.3772044410
C        13.5359610481         9.5591548338        17.6948161897
C        14.5609497907        10.1695158831        16.9205034110
C        12.3699211516         9.0366272671        17.0351718180
C        13.6796626896         9.4840933502        19.0931492133
C        14.4416707869        10.2812017346        15.5620044089
H        15.4500652167        10.5464119789        17.4168117414
C        12.2381961610         9.1541399521        15.6339965351
C        11.3306635812         8.4362499563        17.8184605242
C        12.6729679632         8.8295319393        19.8620429260
H        14.5367623258         9.8789665340        19.5876054324
C        15.4737328793        10.9033375697        14.7474326828
C        13.2200513985         9.8019812769        14.8889158278
H        11.3871232045         8.8045299490        15.1595067838
H        10.4330274333         8.0708742964        17.3054307060
C        11.5038819237         8.3159121706        19.2101239280
C        12.8674638866         8.7631657908        21.2525637739
C        15.2629383753        11.1692795745        13.4444546318
H        16.3690051880        11.1802327697        15.2487704799
C        13.0931095991        10.0749340534        13.4982910195
C        10.5461061534         7.6872389374        20.0383296166
C        11.8578723974         8.2376450707        22.0727836828
H        13.7782515396         9.1572779436        21.7161931879
C        14.0285681837        10.7860529922        12.8081831998
H        16.0158292396        11.6986049453        12.8778024029
H        12.1960487665         9.7484648453        13.0199486745
H         9.6363399373         7.2406509671        19.5849892619
C        10.7181122966         7.6850063104        21.4011263247
C        11.9827097540         8.2003212405        23.4913980835
H        13.8927756132        11.0123739431        11.7511544435
C         9.7013959819         7.1080251538        22.2138509860
C        10.9885579097         7.6404779182        24.2456202476
H        12.8808293686         8.6151149678        23.9378528229
C         9.8439883752         7.1167553106        23.6443592728
H         8.7916216913         6.6610591913        21.7335475225
H        11.0788228563         7.5727158731        25.3025369688
H         8.9902235489         6.6640826244        24.2052956941
