72
frame=8 time_fs=8.000000
C         8.2031877236        12.5757124315        19.8544023355
C         7.2410986027        12.5453418414        20.9168319900
C         9.4723518721        11.9083870963        20.0795060405
C         7.9559858565        13.2144203741        18.6412017271
C         7.4561262159        11.9188790300        22.1312518630
H         6.2884976418        13.0551044745        20.7560202707
C         9.6936695989        11.2297007987        21.3236343864
C        10.4550075044        11.9579863375        19.0699730920
C         8.9242681957        13.2417054576        17.6270299209
H         7.0125682393        13.7510795006        18.5137461813
C         6.4771505827        11.9376888112        23.1351971881
C         8.7235507928        11.2142611537        22.3789967470
H        10.6338800857        10.7095300059        21.4994123772
H        11.4425735029        11.5075821093        19.2004142213
C        10.2231685735        12.6198875600        17.8345269600
C         8.7144073173        13.9150665564        16.3731878309
C         6.6778033888        11.3936747333        24.3460460692
H         5.5412216526        12.4643334147        22.9446608467
C         8.9063304713        10.6061155729        23.6742978718
C        11.1991192597        12.6700540418        16.7852417454
C         9.6893052774        13.9584978124        15.3626717999
H         7.7642388297        14.4487088104        16.2621479473
C         7.9354829325        10.7061114220        24.6340488912
H         5.9475572361        11.4331423698        25.1463822751
H         9.8144656181        10.0488652066        23.8852165228
H        12.1549692378        12.1697043739        16.9297982851
C        10.9493294832        13.2882514906        15.5475993221
C         9.4557151677        14.6456523470        14.0909939274
H         8.0930632978        10.2466000541        25.6215543302
C        11.8469040623        13.2473041835        14.4166738433
C        10.3788670523        14.6331599311        13.0928976408
H         8.5313248413        15.2378788535        14.0176674734
C        11.5713674137        13.8806304051        13.2362005989
H        12.7659338635        12.6659289304        14.5042267335
H        10.1886668161        15.1708515971        12.1722165839
H        12.2651289900        13.7829226959        12.3938048098
C        13.5287413462         9.5500729272        17.6862773000
C        14.5602917108        10.1732816747        16.9184130988
C        12.3744005361         9.0437006169        17.0299899433
C        13.6855349426         9.4871021481        19.0870750953
C        14.4455001661        10.2782898319        15.5696238035
H        15.4669037862        10.5038063508        17.4211175220
C        12.2507551923         9.1683805189        15.6346859041
C        11.3336037450         8.4296903530        17.8212502986
C        12.6710522643         8.8263142111        19.8601595255
H        14.5620105913         9.8684251434        19.6140699346
C        15.4685984429        10.9098002778        14.7366672220
C        13.2133626015         9.7998697689        14.8835411721
H        11.3611118893         8.7803525773        15.1593775902
H        10.4364106907         8.0527069506        17.3233906356
C        11.5083179072         8.3210324765        19.2177604812
C        12.8700406934         8.7749254367        21.2509811522
C        15.2594733625        11.1664494272        13.4442315710
H        16.3670097524        11.1833798452        15.2774847676
C        13.0998740954        10.0738328798        13.4990036029
C        10.5432830713         7.6866055859        20.0324149720
C        11.8644067676         8.2288054021        22.0765504838
H        13.7781284020         9.1685288896        21.7100040069
C        14.0231632482        10.7791512276        12.8136174057
H        16.0090919951        11.7046255691        12.8808646950
H        12.1829870913         9.7810731089        13.0017798147
H         9.6358302282         7.2503828790        19.6172694949
C        10.7143777940         7.6898904342        21.3925551365
C        11.9884578601         8.1901376556        23.4880531804
H        13.9302962618        10.9881077508        11.7476127220
C         9.6823015711         7.1012889186        22.2107503395
C        10.9838181194         7.6474074392        24.2411388445
H        12.8570082887         8.6463273349        23.9644990037
C         9.8477339804         7.1099231895        23.6680945602
H         8.7893910830         6.6511985904        21.7367067098
H        11.0765024180         7.5630924637        25.3124384473
H         8.9885026498         6.6667573357        24.2053602909
