72
frame=9 time_fs=9.000000
C         8.2046144045        12.5754237645        19.8524503009
C         7.2396068203        12.5459151380        20.9153523195
C         9.4697619441        11.9097951047        20.0815024854
C         7.9595679510        13.2108453449        18.6371926881
C         7.4543139728        11.9192030233        22.1317948799
H         6.3005262728        13.0419206710        20.7527076659
C         9.6955075797        11.2321040015        21.3245993011
C        10.4530574884        11.9531193722        19.0749389712
C         8.9270791659        13.2451149576        17.6229724343
H         7.0346517663        13.7493263030        18.5284661775
C         6.4758636933        11.9365079009        23.1339294759
C         8.7238808420        11.2159002976        22.3769599291
H        10.6468145860        10.7015856086        21.5000421960
H        11.4351156003        11.5050335636        19.1933449088
C        10.2261279145        12.6249018867        17.8429891410
C         8.7080132433        13.9203079813        16.3680554131
C         6.6739962148        11.3901754034        24.3465083401
H         5.5672021834        12.4723585580        22.9651440888
C         8.9050294513        10.6106383583        23.6712254864
C        11.1945742691        12.6700076129        16.7835521353
C         9.6885553489        13.9554133151        15.3602827276
H         7.7725263975        14.4633450326        16.2681100303
C         7.9358947372        10.7052504678        24.6326620786
H         5.9382346055        11.4487515814        25.1518608914
H         9.8155546799        10.0446785264        23.8841446196
H        12.1675302878        12.1584170921        16.9048921808
C        10.9484140254        13.2864417708        15.5481726187
C         9.4521714275        14.6454262582        14.0915096925
H         8.1265133385        10.2418178721        25.6014707808
C        11.8518548015        13.2496377430        14.4192022025
C        10.3762044529        14.6260946560        13.0962142829
H         8.5466312553        15.2579876360        14.0414895627
C        11.5780430894        13.8869558451        13.2415681894
H        12.7579490932        12.6584316641        14.4919947235
H        10.1822565929        15.1611075733        12.1778980745
H        12.2500173757        13.7752205366        12.4057663207
C        13.8200204372        17.0585498043        18.0743405679
C        14.7721389408        17.6017140305        17.1754215679
C        12.5879343482        16.6366236817        17.5229604359
C        13.9296048741        16.9007509202        19.4741694112
C        14.6212377839        17.7426844385        15.7966462353
H        15.6652967136        17.9347287114        17.6790242903
C        12.4697222010        16.7950725712        16.0846440107
C        11.6234344546        16.1185916487        18.4033805268
C        12.9951435026        16.3854117663        20.3656557417
H        14.8768796269        17.2351009381        19.8654019597
C        15.6331628327        18.2956895837        14.9422919633
C        13.4375266248        17.3035008766        15.2111781692
H        11.5385431545        16.5009058012        15.6712810016
H        10.7220123285        15.7600006716        17.9599456879
C        11.8098588058        15.9333764688        19.7891010249
C        13.1149998403        16.2423762794        21.7930694380
C        15.4637668040        18.4209770994        13.5479356803
H        16.5627673322        18.7092161034        15.3442364783
C        13.2886209035        17.4278618318        13.8163000652
C        10.8854250784        15.2910783571        20.6963711802
C        12.1992533734        15.7014032978        22.6776762091
H        14.0785499591        16.5911253281        22.1426087882
C        14.2560861941        17.9801584309        12.9644388259
H        16.2448137993        18.8280096218        12.9143419875
H        12.3765897621        17.0897924512        13.3805371058
H        10.0257032158        14.8685567327        20.2289648719
C        11.0418028329        15.1702934403        22.1011618653
C        12.3567938703        15.5749641423        24.0751250640
H        14.0724011510        18.0738480173        11.9105531078
C        10.1343671483        14.4737895280        22.9810187529
C        11.4788163460        14.9611764345        24.9547094338
H        13.2586752393        15.9391326495        24.5293314196
C        10.3103772839        14.3740783085        24.3610345459
H         9.2563179619        13.9751476380        22.5432361341
H        11.6248263138        14.8381669655        26.0212631903
H         9.5985911813        13.8196611175        24.9494811301
