72
frame=0 time_fs=0.000000
C         8.1923283956        12.5684200582        19.8847264967
C         7.2359449891        12.5570479931        20.9058263099
C         9.4904309020        11.8954525961        20.0730867333
C         7.9188689379        13.2514131457        18.6606433458
C         7.4942726460        11.9037633784        22.1213140488
H         6.3194072114        13.0728039982        20.7902343704
C         9.6570129325        11.2200052224        21.3352819972
C        10.4769825289        11.9882105754        19.0331448404
C         8.9179437651        13.2301618073        17.6322864856
H         6.9748411838        13.6887657920        18.4285329065
C         6.4453593676        11.9693069270        23.1363841543
C         8.7267523717        11.2157206377        22.3688388999
H        10.6404195026        10.7303180641        21.4947674634
H        11.4260478242        11.5257257360        19.2555132745
C        10.2054882270        12.5879393949        17.7853728312
C         8.7465109185        13.8923920697        16.4155441557
C         6.7315206761        11.3906719913        24.3679322731
H         5.5032488264        12.3523891759        22.8412009941
C         8.9091797959        10.5806109388        23.6858263822
C        11.2113987079        12.6745314076        16.7910806907
C         9.6842899414        13.9812742409        15.3671188860
H         7.7869319890        14.3136358886        16.2113435721
C         7.9179257237        10.7128143495        24.6491645428
H         5.9445610548        11.3510741519        25.1366604565
H         9.8613144486        10.0683169185        23.9001060856
H        12.1677170129        12.1880539029        17.1055520522
C        10.9538593339        13.2949160637        15.5478415601
C         9.4651271236        14.6545566124        14.1110048054
H         7.8793276207        10.3182167114        25.6444639897
C        11.8281356634        13.2268229601        14.4099699065
C        10.3898333687        14.6776206986        13.0659860076
H         8.4976477024        15.0624379772        13.8604580351
C        11.5479510731        13.8373364174        13.1928813781
H        12.7777591155        12.7454052017        14.5800896212
H        10.2383175329        15.2238310678        12.1366439326
H        12.2816637526        13.8602713100        12.4233962009
C        13.7700215034        17.0456486118        18.0681715733
C        14.7534280734        17.5942430067        17.2290591185
C        12.5976733254        16.6344395024        17.4748297627
C        13.9853579700        16.9203035646        19.4667569282
C        14.6761793825        17.7574145279        15.7985356918
H        15.6885667021        17.9251926086        17.6549801495
C        12.4383089782        16.8054595350        16.1032145819
C        11.6367888340        16.1018731889        18.3857577119
C        12.9927140573        16.3824524253        20.3614448377
H        14.9312842645        17.2469201342        19.9275037100
C        15.6197680802        18.3410365385        14.9225616776
C        13.4601990929        17.2882237329        15.2148763361
H        11.5355101328        16.5035270183        15.6584181635
H        10.6767552036        15.8649179895        18.0084215503
C        11.7768003832        15.9673604425        19.8058861001
C        13.1377086441        16.2298374345        21.7578399572
C        15.4516185679        18.3977383999        13.5381331156
H        16.5792960388        18.5781229502        15.3741730586
C        13.2713301565        17.4028568136        13.7880995239
C        10.8875678754        15.2863203989        20.6562161933
C        12.1614208434        15.7110736409        22.6884739683
H        14.0056110860        16.5550883873        22.3168828848
C        14.2596450742        17.9865999433        12.9792668199
H        16.2409420285        18.8271234345        12.9322282363
H        12.3446224198        17.1481031767        13.3345855653
H        10.0718202857        14.7802579513        20.2297582013
C        11.0139737232        15.1576950453        22.0924937820
C        12.3789687412        15.5825562851        24.1239239104
H        14.1232095636        18.1276309107        11.9383892828
C        10.1710016095        14.4877838195        22.9801345841
C        11.4213029873        14.9440562634        24.9616031237
H        13.3544076995        15.8721821017        24.5126048852
C        10.3174920160        14.3964651376        24.3916352620
H         9.3386930147        13.9330012528        22.5033718328
H        11.7206344734        14.7858798917        25.9716326600
H         9.6854960848        13.7686104670        24.9807439635
